  Job Started  at 20:08.24 15th September  2013

  Number of CPUs =     1

  Total number of configurations input =   1

*  Input for Configuration =   1                                               *

  Formula = C240

  Number of irreducible atoms/shells =     240

  Total number atoms/shells =     240

  Dimensionality = 3               :  Bulk

  Cartesian lattice vectors (Angstroms) :

       14.400000    0.000000    0.000000
        0.000000   14.400000    0.000000
        0.000000    0.000000   14.400000

  Cell parameters (Angstroms/Degrees):

  a =      14.4000    alpha =  90.0000
  b =      14.4000    beta  =  90.0000
  c =      14.4000    gamma =  90.0000

  Initial cell volume =        2985.984000 Angs**3

  Temperature of configuration =  300.0     K

  Pressure of configuration =         0.000 GPa

  Fractional coordinates of asymmetric unit :

   No.  Atomic       x           y          z         Charge      Occupancy
        Label      (Frac)      (Frac)     (Frac)        (e)         (Frac)
      1 C1    c    0.172722    0.180583    0.951979     0.00000    1.000000
      2 C1    c    0.147653 *  0.203910 *  0.057014 *   0.00000    1.000000
      3 C1    c    0.114965 *  0.216000 *  0.873653 *   0.00000    1.000000
      4 C1    c    0.033514 *  0.270479 *  0.891590 *   0.00000    1.000000
      5 C1    c    0.171729 *  0.062167 *  0.836785 *   0.00000    1.000000
      6 C1    c    0.149063 *  0.959757 *  0.815042 *   0.00000    1.000000
      7 C1    c    0.207806 *  0.086424 *  0.929958 *   0.00000    1.000000
      8 C1    c    0.221375 *  0.017618 *  0.007660 *   0.00000    1.000000
      9 C1    c    0.118042 *  0.141646 *  0.798896 *   0.00000    1.000000
     10 C1    c    0.035583 *  0.123625 *  0.744812 *   0.00000    1.000000
     11 C1    c    0.059792 *  0.254576 *  0.076264 *   0.00000    1.000000
     12 C1    c    0.002694 *  0.289958 *  0.993181 *   0.00000    1.000000
     13 C1    c    0.015389 *  0.215590 *  0.161007 *   0.00000    1.000000
     14 C1    c    0.907625 *  0.209361 *  0.170382 *   0.00000    1.000000
     15 C1    c    0.161431 *  0.131146 *  0.132778 *   0.00000    1.000000
     16 C1    c    0.198146 *  0.038826 *  0.107785 *   0.00000    1.000000
     17 C1    c    0.073549 *  0.137792 *  0.191653 *   0.00000    1.000000
     18 C1    c    0.031403 *  0.053937 *  0.227938 *   0.00000    1.000000
     19 C1    c    0.893340 *  0.278500 *  0.005438 *   0.00000    1.000000
     20 C1    c    0.848743 *  0.240340 *  0.088097 *   0.00000    1.000000
     21 C1    c    0.857986 *  0.253104 *  0.905396 *   0.00000    1.000000
     22 C1    c    0.781431 *  0.188542 *  0.896632 *   0.00000    1.000000
     23 C1    c    0.938931 *  0.249590 *  0.838465 *   0.00000    1.000000
     24 C1    c    0.940479 *  0.177889 *  0.766444 *   0.00000    1.000000
     25 C1    c    0.765514 *  0.178479 *  0.080139 *   0.00000    1.000000
     26 C1    c    0.731722 *  0.153111 *  0.980354 *   0.00000    1.000000
     27 C1    c    0.779799 *  0.103618 *  0.150951 *   0.00000    1.000000
     28 C1    c    0.761201 *  0.009333 *  0.127062 *   0.00000    1.000000
     29 C1    c    0.863778 *  0.125438 *  0.210326 *   0.00000    1.000000
     30 C1    c    0.922104 *  0.046611 *  0.240382 *   0.00000    1.000000
     31 C1    c    0.708535 *  0.052285 *  0.957736 *   0.00000    1.000000
     32 C1    c    0.723771 *  0.976694 *  0.034417 *   0.00000    1.000000
     33 C1    c    0.731139 *  0.030375 *  0.857736 *   0.00000    1.000000
     34 C1    c    0.763889 *  0.932701 *  0.833458 *   0.00000    1.000000
     35 C1    c    0.782340 *  0.114382 *  0.820257 *   0.00000    1.000000
     36 C1    c    0.861597 *  0.106444 *  0.758625 *   0.00000    1.000000
     37 C1    c    0.755514 *  0.880910 *  0.012431 *   0.00000    1.000000
     38 C1    c    0.782625 *  0.861681 *  0.912264 *   0.00000    1.000000
     39 C1    c    0.812854 *  0.844229 *  0.091806 *   0.00000    1.000000
     40 C1    c    0.898243 *  0.792611 *  0.073132 *   0.00000    1.000000
     41 C1    c    0.813285 *  0.923694 *  0.164167 *   0.00000    1.000000
     42 C1    c    0.894764 *  0.940403 *  0.220507 *   0.00000    1.000000
     43 C1    c    0.873097 *  0.817708 *  0.892868 *   0.00000    1.000000
     44 C1    c    0.926792 *  0.780743 *  0.966500 *   0.00000    1.000000
     45 C1    c    0.913500 *  0.853354 *  0.808514 *   0.00000    1.000000
     46 C1    c    0.018924 *  0.855514 *  0.798125 *   0.00000    1.000000
     47 C1    c    0.855313 *  0.927111 *  0.770944 *   0.00000    1.000000
     48 C1    c    0.897361 *  0.017069 *  0.734444 *   0.00000    1.000000
     49 C1    c    0.035549 *  0.784889 *  0.959778 *   0.00000    1.000000
     50 C1    c    0.079910 *  0.819028 *  0.875722 *   0.00000    1.000000
     51 C1    c    0.075521 *  0.807347 *  0.060611 *   0.00000    1.000000
     52 C1    c    0.151118 *  0.875889 *  0.068201 *   0.00000    1.000000
     53 C1    c    0.985625 *  0.816667 *  0.126500 *   0.00000    1.000000
     54 C1    c    0.984111 *  0.886312 *  0.197785 *   0.00000    1.000000
     55 C1    c    0.161806 *  0.886590 *  0.884681 *   0.00000    1.000000
     56 C1    c    0.196104 *  0.911917 *  0.978306 *   0.00000    1.000000
     57 C1    c    0.063715 *  0.939736 *  0.756993 *   0.00000    1.000000
     58 C1    c    0.005597 *  0.022771 *  0.727236 *   0.00000    1.000000
     59 C1    c    0.148187 *  0.945806 *  0.141229 *   0.00000    1.000000
     60 C1    c    0.068069 *  0.953271 *  0.200924 *   0.00000    1.000000
     61 C1    c    0.577681 *  0.734750 *  0.888528 *   0.00000    1.000000
[...]
    226 C1    c    0.136292 *  0.360653 *  0.403972 *   0.00000    1.000000
    227 C1    c    0.967083 *  0.316187 *  0.350653 *   0.00000    1.000000
    228 C1    c    0.968910 *  0.383764 *  0.274486 *   0.00000    1.000000
    229 C1    c    0.155604 *  0.375326 *  0.579437 *   0.00000    1.000000
    230 C1    c    0.187917 *  0.396389 *  0.486153 *   0.00000    1.000000
    231 C1    c    0.151069 *  0.454229 *  0.653312 *   0.00000    1.000000
    232 C1    c    0.178035 *  0.545597 *  0.626632 *   0.00000    1.000000
    233 C1    c    0.060097 *  0.442243 *  0.700979 *   0.00000    1.000000
    234 C1    c    0.009076 *  0.523132 *  0.732201 *   0.00000    1.000000
    235 C1    c    0.214583 *  0.491368 *  0.462257 *   0.00000    1.000000
    236 C1    c    0.209000 *  0.562382 *  0.530479 *   0.00000    1.000000
    237 C1    c    0.140243 *  0.432194 *  0.325875 *   0.00000    1.000000
    238 C1    c    0.061160 *  0.444653 *  0.262660 *   0.00000    1.000000
    239 C1    c    0.125035 *  0.631007 *  0.660549 *   0.00000    1.000000
    240 C1    c    0.039660 *  0.618181 *  0.713889 *   0.00000    1.000000

  Molecule list generated from bond lengths :

  Total number of molecules =     4

Molecule No./:  Atoms
Periodicity  :
     1  0    : C1   c     1 C1   c     2 C1   c     3 C1   c     4 C1   c     5
             : C1   c     6 C1   c     7 C1   c     8 C1   c     9 C1   c    10
             : C1   c    11 C1   c    12 C1   c    13 C1   c    14 C1   c    15
             : C1   c    16 C1   c    17 C1   c    18 C1   c    19 C1   c    20
             : C1   c    21 C1   c    22 C1   c    23 C1   c    24 C1   c    25
             : C1   c    26 C1   c    27 C1   c    28 C1   c    29 C1   c    30
             : C1   c    31 C1   c    32 C1   c    33 C1   c    34 C1   c    35
             : C1   c    36 C1   c    37 C1   c    38 C1   c    39 C1   c    40
             : C1   c    41 C1   c    42 C1   c    43 C1   c    44 C1   c    45
             : C1   c    46 C1   c    47 C1   c    48 C1   c    49 C1   c    50
             : C1   c    51 C1   c    52 C1   c    53 C1   c    54 C1   c    55
             : C1   c    56 C1   c    57 C1   c    58 C1   c    59 C1   c    60
     2  0    : C1   c    61 C1   c    62 C1   c    63 C1   c    64 C1   c    65
             : C1   c    66 C1   c    67 C1   c    68 C1   c    69 C1   c    70
             : C1   c    71 C1   c    72 C1   c    73 C1   c    74 C1   c    75
             : C1   c    76 C1   c    77 C1   c    78 C1   c    79 C1   c    80
             : C1   c    81 C1   c    82 C1   c    83 C1   c    84 C1   c    85
             : C1   c    86 C1   c    87 C1   c    88 C1   c    89 C1   c    90
             : C1   c    91 C1   c    92 C1   c    93 C1   c    94 C1   c    95
             : C1   c    96 C1   c    97 C1   c    98 C1   c    99 C1   c   100
             : C1   c   101 C1   c   102 C1   c   103 C1   c   104 C1   c   105
             : C1   c   106 C1   c   107 C1   c   108 C1   c   109 C1   c   110
             : C1   c   111 C1   c   112 C1   c   113 C1   c   114 C1   c   115
             : C1   c   116 C1   c   117 C1   c   118 C1   c   119 C1   c   120
     3  0    : C1   c   121 C1   c   122 C1   c   123 C1   c   124 C1   c   125
             : C1   c   126 C1   c   127 C1   c   128 C1   c   129 C1   c   130
             : C1   c   131 C1   c   132 C1   c   133 C1   c   134 C1   c   135
             : C1   c   136 C1   c   137 C1   c   138 C1   c   139 C1   c   140
             : C1   c   141 C1   c   142 C1   c   143 C1   c   144 C1   c   145
             : C1   c   146 C1   c   147 C1   c   148 C1   c   149 C1   c   150
             : C1   c   151 C1   c   152 C1   c   153 C1   c   154 C1   c   155
             : C1   c   156 C1   c   157 C1   c   158 C1   c   159 C1   c   160
             : C1   c   161 C1   c   162 C1   c   163 C1   c   164 C1   c   165
             : C1   c   166 C1   c   167 C1   c   168 C1   c   169 C1   c   170
             : C1   c   171 C1   c   172 C1   c   173 C1   c   174 C1   c   175
             : C1   c   176 C1   c   177 C1   c   178 C1   c   179 C1   c   180
     4  0    : C1   c   181 C1   c   182 C1   c   183 C1   c   184 C1   c   185
             : C1   c   186 C1   c   187 C1   c   188 C1   c   189 C1   c   190
             : C1   c   191 C1   c   192 C1   c   193 C1   c   194 C1   c   195
             : C1   c   196 C1   c   197 C1   c   198 C1   c   199 C1   c   200
             : C1   c   201 C1   c   202 C1   c   203 C1   c   204 C1   c   205
             : C1   c   206 C1   c   207 C1   c   208 C1   c   209 C1   c   210
             : C1   c   211 C1   c   212 C1   c   213 C1   c   214 C1   c   215
             : C1   c   216 C1   c   217 C1   c   218 C1   c   219 C1   c   220
             : C1   c   221 C1   c   222 C1   c   223 C1   c   224 C1   c   225
             : C1   c   226 C1   c   227 C1   c   228 C1   c   229 C1   c   230
             : C1   c   231 C1   c   232 C1   c   233 C1   c   234 C1   c   235
             : C1   c   236 C1   c   237 C1   c   238 C1   c   239 C1   c   240

  Brillouin zone sampling points :

  Point number          x          y          z            Weight
        1           0.000000   0.000000   0.000000         1.0000

*  General input information                                                   *

  Species output for all configurations :

  Species    Type    Atomic    Atomic    Charge       Radii (Angs)     Library
[...]
  623.07  624.38  625.14  626.01  627.24  628.78  629.58  631.20  632.73
  633.44  637.33  638.83  639.85  641.75  642.38  643.80  644.18  645.86
  647.14  648.69  649.58  650.70  651.48  653.11  654.95  656.72  657.52
  659.05  661.31  665.24  666.52  669.22  670.32  672.91  675.04  675.73
  678.38  679.86  682.57  683.94  685.63  685.88  690.95  692.96  693.41
  694.72  695.74  696.38  698.91  699.66  701.73  703.91  707.92  710.96
  712.24  715.62  718.94  721.79  722.82  726.69  728.17  729.53  731.07
  731.59  732.23  733.02  735.10  735.93  736.70  737.32  737.97  738.44
  740.45  741.45  743.83  745.18  745.70  746.97  748.04  749.33  749.86
  750.33  751.98  753.16  756.53  757.57  761.00  761.34  762.58  762.86
  764.02  765.82  768.93  774.37  776.17  777.15  778.92  780.19  782.24
  783.58  787.50  789.62  791.37  792.19  794.06  794.54  795.09  797.50
  798.87  799.95  801.81  802.93  804.35  807.10  810.09  813.04  815.58
  817.43  820.34  824.01  825.60  827.02  832.82  833.20  834.17  835.57
  838.26  841.30  841.95  845.16  847.52  849.16  853.10  855.34  856.61
  859.08  859.55  862.27  864.48  866.66  868.60  870.88  874.88  875.59
  882.04  885.13  885.62  887.61  890.92  894.17  895.28  896.75  898.09
  898.85  900.65  901.66  901.98  903.01  906.06  907.63  907.66  908.31
  910.29  910.51  910.84  913.34  915.78  916.77  917.84  919.76  920.84
  920.89  922.02  922.95  923.59  925.81  926.25  929.40  930.02  931.51
  932.14  933.77  935.46  936.38  937.16  940.75  943.06  944.70  945.49
  950.03  951.72  953.74  956.95  958.73  960.28  963.28  964.28  965.77
  970.62  974.52  976.49  978.79  982.14  989.13  990.37 1001.33 1002.74
 1008.83 1008.96 1010.23 1010.72 1016.51 1017.40 1019.15 1020.88 1022.20
 1022.92 1024.59 1025.70 1027.82 1033.30 1034.21 1035.22 1041.50 1045.50
 1049.35 1052.48 1053.46 1054.37 1055.42 1055.91 1056.75 1058.12 1058.66
 1060.59 1061.21 1063.42 1064.57 1064.97 1066.52 1066.91 1068.06 1069.50
 1070.04 1070.94 1077.81 1078.45 1079.18 1080.55 1081.81 1082.88 1087.59
 1089.44 1092.06 1095.37 1096.80 1097.49 1099.23 1100.84 1105.16 1107.30
 1110.07 1113.80 1115.84 1116.66 1117.99 1119.40 1120.72 1122.87 1125.53
 1127.75 1128.92 1129.17 1131.83 1132.44 1136.33 1136.35 1139.30 1139.97
 1140.80 1141.62 1144.83 1145.88 1148.13 1148.44 1148.71 1152.10 1155.04
 1155.71 1157.10 1158.60 1160.60 1163.31 1165.61 1168.59 1169.66 1173.42
 1175.44 1175.54 1184.47 1186.58 1194.66 1200.08 1204.34 1209.08 1212.21
 1216.57 1221.84 1222.99 1227.78 1234.73 1240.05 1240.58 1247.44 1249.60
 1250.15 1250.26 1257.53 1258.96 1260.49 1260.90 1262.44 1267.76 1268.04
 1268.21 1268.63 1268.85 1276.69 1278.97 1282.07 1282.84 1285.34 1287.83
 1289.05 1290.24 1293.95 1295.90 1296.47 1302.43 1303.45 1304.70 1315.66
 1315.89 1317.02 1319.23 1320.27 1323.40 1327.27 1330.80 1334.44 1335.82
[...]
 1414.02 1414.76 1416.23 1417.20 1419.02 1420.34 1421.35 1424.44 1425.50
 1426.05 1426.40 1428.95 1430.56 1430.89 1432.06 1434.95 1435.33 1438.77
 1440.10 1441.26 1442.82 1443.00 1443.76 1444.30 1447.87 1447.91 1449.86
 1450.33 1450.80 1452.38 1452.89 1453.07 1453.37 1455.21 1456.27 1456.37
 1458.54 1458.93 1459.43 1461.33 1461.84 1463.55 1465.03 1466.21 1467.12
 1468.42 1469.24 1469.79 1473.22 1474.85 1475.18 1475.66 1477.68 1478.55
 1479.41 1481.55 1481.97 1482.62 1483.69 1484.62 1486.04 1486.30 1487.49
 1488.34 1489.73 1490.40 1491.24 1492.27 1494.41 1495.75 1497.73 1497.88
 1498.34 1498.65 1501.25 1501.68 1503.21 1503.72 1506.02 1507.36 1509.27
 1510.70 1514.31 1514.85 1517.73 1520.33 1520.85 1521.59 1523.62 1524.86
 1526.61 1530.15 1530.82 1532.33 1534.57 1536.48 1537.44 1540.03 1541.30
 1542.75 1545.99 1553.61 1555.85 1559.99 1561.59 1562.82 1563.50 1565.40
 1572.40 1575.38 1577.76 1579.48 1585.90 1587.14 1589.66 1590.85 1597.03
 1598.86 1600.88 1607.78 1614.17 1616.64 1620.70 1625.52 1636.21 1637.74
 1658.41 1755.09 1757.35 1777.38 1790.75 1816.36 1821.60 2140.74 2188.02

  Thermal conductivity:

  Lorentzian broadening factor =       0.500000 cm-1
                               =       0.061992 meV
  Frequency cutoff for AF term =       0.000000 cm-1
                               =       0.000000 meV

 Mode    : Frequency              Mode diffusivity        Thermal conductivity
         :   (cm-1)                  (cm**2/s)                  (W/m.K)
     4       17.7705                0.0000000000             0.0000000000
     5       27.4855                0.0000000000             0.0000000000
     6       38.9447                0.0000064000             0.0000029506
     7       40.4412                0.0000059351             0.0000027357
     8       46.7002                0.0000000000             0.0000000000
     9       52.1456                0.0000224579             0.0000103302
    10       53.1128                0.0000216475             0.0000099554
    11       59.6290                0.0000089344             0.0000041031
    12       63.4613                0.0000078880             0.0000036192
    13       67.8901                0.0000000000             0.0000000000
    14       72.0268                0.0000115185             0.0000052733
    15       74.7984                0.0000106807             0.0000048859
    16       83.4159                0.0000000000             0.0000000000
    17       91.7048                0.0000000000             0.0000000000
    18      100.3155                0.0000000000             0.0000000000
    19      106.1965                0.0000000000             0.0000000000
    20      111.4314                0.0001193789             0.0000539033
    21      114.6094                0.0001128502             0.0000508857
    22      147.9194                0.0000000000             0.0000000000
    23      152.3520                0.0000000000             0.0000000000
    24      180.4477                0.0000000000             0.0000000000
    25      197.4164                0.0000000000             0.0000000000
    26      218.1993                0.0002541551             0.0001073547
    27      220.3571                0.0002492020             0.0001050752
    28      228.4489                0.0008197180             0.0003432787
    29      229.6140                0.0008114202             0.0003394632
    30      235.3179                0.0000000000             0.0000000000
    31      241.3610                0.0000324247             0.0000134249
    32      245.2291                0.0000826598             0.0000341035
    33      245.7548                0.0000510309             0.0000210439
    34      256.7151                0.0000000000             0.0000000000
    35      264.5838                0.0000000000             0.0000000000
    36      271.8208                0.0000000000             0.0000000000
    37      276.9215                0.0012447583             0.0004979226
    38      277.4852                0.0012397061             0.0004956131
    39      285.3474                0.0002229846             0.0000884143
    40      288.4424                0.0002182251             0.0000862420
    41      294.0519                0.0000747776             0.0000293731
    42      297.6422                0.0000729844             0.0000285560
    43      303.2182                0.0000000000             0.0000000000
    44      307.2825                0.0011027447             0.0004268245
    45      309.2267                0.0015938946             0.0006155605
    46      312.4940                0.0014367532             0.0005527921
    47      314.2940                0.0016734457             0.0006425186
    48      316.9305                0.0016363455             0.0006263454
    49      319.7409                0.0008990328             0.0003429886
    50      320.7637                0.0004099092             0.0001561949
    51      324.4513                0.0010138090             0.0003846179
    52      326.7627                0.0008032408             0.0003038885
    53      331.3988                0.0014051567             0.0005286312
    54      332.5072                0.0016238398             0.0006100747
    55      335.9423                0.0006639686             0.0002484009
    56      339.1231                0.0004852457             0.0001808228
    57      342.1147                0.0004065843             0.0001509443
    58      343.6115                0.0003515237             0.0001302574
    59      349.8031                0.0004941782             0.0001816820
    60      351.2443                0.0012694786             0.0004658541
    61      352.6099                0.0010499762             0.0003846267
    62      356.7839                0.0002926934             0.0001066398
    63      358.9936                0.0014432905             0.0005243290
[...]
   706     1614.1655                0.0000779507             0.0000009392
   707     1616.6382                0.0000777125             0.0000009281
   708     1620.7009                0.0000000000             0.0000000000
   709     1625.5236                0.0000000000             0.0000000000
   710     1636.2145                0.0000299257             0.0000003333
   711     1637.7436                0.0000298698             0.0000003308
   712     1658.4111                0.0000000000             0.0000000000
   713     1755.0885                0.0000000102             0.0000000001
   714     1757.3538                0.0000000102             0.0000000001
   715     1777.3751                0.0000000000             0.0000000000
   716     1790.7462                0.0000000000             0.0000000000
   717     1816.3574                0.0000000000             0.0000000000
   718     1821.5952                0.0000000000             0.0000000000
   719     2140.7396                0.0000000000             0.0000000000
   720     2188.0218                0.0000000000             0.0000000000
  Thermal conductivity (Allen-Feldman) =     0.114218 W/(m.K)

  Phonon properties (per mole of unit cells): Temperature =    300.000 K
  Zero point energy            =       41.756348 eV
  Entropy                      =        0.012841 eV/K
                               =     1238.996821 J/(mol.K)
  Helmholtz free-energy        =    -1895.189003 eV
                               =  -182856.752175 kJmol-1
  Free energy (equipartition)  =    -1910.363490 eV
  - T*S       (equipartition)  =        6.545001 eV
  Uvib        (equipartition)  =       18.535890 eV
  Mean kinetic energy          =       22.092674 eV
  Heat capacity - const volume =        0.019973 eV/K
                               =     1927.108688 J/(mol.K)

  Phonon density of states :

  Broadening factor =     0.5000

 Frequency (cm-1) Density of States
    0.00000 |***                                                           0.003
   34.58084 |**********                                                    0.007
   69.16168 |*************                                                 0.010
  103.74252 |**********                                                    0.007
  138.32336 |****                                                          0.003
  172.90421 |***                                                           0.003
  207.48505 |******                                                        0.005
  242.06589 |*************                                                 0.010
  276.64673 |**************                                                0.010
  311.22757 |***********************                                       0.016
  345.80841 |***************************                                   0.019
  380.38925 |*****************************************                     0.028
  414.97009 |**********************************                            0.024
  449.55093 |*****************************                                 0.021
  484.13178 |*****************************                                 0.020
  518.71262 |*****************************                                 0.020
  553.29346 |**********************************                            0.024
  587.87430 |******************************                                0.021
  622.45514 |********************************************                  0.031
  657.03598 |******************************************                    0.029
  691.61682 |**************************************                        0.026
  726.19766 |******************************************                    0.030
  760.77850 |******************************************                    0.029
  795.35934 |***************************************                       0.027
  829.94019 |******************************                                0.021
  864.52103 |******************************                                0.021
  899.10187 |********************************************                  0.031
  933.68271 |*******************************************                   0.030
  968.26355 |***************************                                   0.019
 1002.84439 |************************                                      0.017
 1037.42523 |******************************                                0.021
 1072.00607 |*******************************************                   0.030
 1106.58691 |*********************************                             0.023
 1141.16776 |*****************************************                     0.028
 1175.74860 |***********************                                       0.017
 1210.32944 |*****************                                             0.012
 1244.91028 |************************                                      0.017
 1279.49112 |*******************************                               0.021
 1314.07196 |*************************                                     0.018
 1348.65280 |****************************************                      0.028
 1383.23364 |************************************                          0.025
 1417.81448 |***********************************************               0.033
 1452.39533 |***********************************************************   0.041
 1486.97617 |**********************************************************    0.041
 1521.55701 |***************************************                       0.027
 1556.13785 |*************************                                     0.017
 1590.71869 |*********************                                         0.015
 1625.29953 |************                                                  0.009
 1659.88037 |***                                                           0.003
 1694.46121 |                                                              0.001
 1729.04205 |*                                                             0.001
 1763.62289 |*****                                                         0.004
 1798.20374 |***                                                           0.003
 1832.78458 |**                                                            0.002
 1867.36542 |                                                              0.000
 1901.94626 |                                                              0.000
 1936.52710 |                                                              0.000
 1971.10794 |                                                              0.000
 2005.68878 |                                                              0.000
 2040.26962 |                                                              0.000
 2074.85046 |                                                              0.000
 2109.43131 |                                                              0.000
 2144.01215 |**                                                            0.001
 2178.59299 |*                                                             0.001

  Time to end of optimisation =      28.3644 seconds

  Timing analysis for GULP :

  Task / Subroutine                                          Time (Seconds)
  Calculation of real space energy and derivatives               15.4345
  Calculation of Bond Order energy and derivatives                3.2361
  Calculation of molecules and connectivity                       0.7905
  Calculation of phonons                                          6.0378
  Calculation of scattering                                       0.0000
  Calculation of matrix inversion                                 2.5166
  Disk read/write operations to scratch files                     0.0046
  Global summation overhead                                       0.0003

  LAMMPS file written on channel 26

  Job Finished at 20:08.52 15th September  2013