  Job Started  at 14:50.08  8th July       2013

  Number of CPUs =     1

  Total number of configurations input =   1

*  Input for Configuration =   1                                               *

  Formula = C60

  Number of irreducible atoms/shells =      60

  Total number atoms/shells =      60

  Dimensionality = 3               :  Bulk

  Cartesian lattice vectors (Angstroms) :

      100.000000    0.000000    0.000000
        0.000000  100.000000    0.000000
        0.000000    0.000000  100.000000

  Cell parameters (Angstroms/Degrees):

  a =     100.0000    alpha =  90.0000
  b =     100.0000    beta  =  90.0000
  c =     100.0000    gamma =  90.0000

  Initial cell volume =     1000000.000000 Angs**3

  Temperature of configuration = 0.5000E+05 K

  Pressure of configuration =         0.000 GPa

  Fractional coordinates of asymmetric unit :

   No.  Atomic       x           y          z         Charge      Occupancy
        Label      (Frac)      (Frac)     (Frac)        (e)         (Frac)
      1 C1    c    0.509930    0.530670    0.572150     0.00000    1.000000
      2 C1    c    0.506450 *  0.521040 *  0.559520 *   0.00000    1.000000
      3 C1    c    0.494670 *  0.512100 *  0.561460 *   0.00000    1.000000
      4 C1    c    0.488070 *  0.510710 *  0.573510 *   0.00000    1.000000
      5 C1    c    0.491250 *  0.519410 *  0.584940 *   0.00000    1.000000
      6 C1    c    0.500860 *  0.529150 *  0.583900 *   0.00000    1.000000
      7 C1    c    0.498250 *  0.542330 *  0.589170 *   0.00000    1.000000
      8 C1    c    0.503860 *  0.552170 *  0.580140 *   0.00000    1.000000
      9 C1    c    0.509970 *  0.545160 *  0.569060 *   0.00000    1.000000
     10 C1    c    0.508850 *  0.550420 *  0.556430 *   0.00000    1.000000
     11 C1    c    0.505550 *  0.541690 *  0.544960 *   0.00000    1.000000
     12 C1    c    0.503770 *  0.528150 *  0.546730 *   0.00000    1.000000
     13 C1    c    0.492710 *  0.521620 *  0.540160 *   0.00000    1.000000
     14 C1    c    0.487090 *  0.511860 *  0.549230 *   0.00000    1.000000
     15 C1    c    0.473460 *  0.509420 *  0.549120 *   0.00000    1.000000
     16 C1    c    0.466560 *  0.507600 *  0.561700 *   0.00000    1.000000
     17 C1    c    0.473710 *  0.508420 *  0.573570 *   0.00000    1.000000
     18 C1    c    0.468000 *  0.515440 *  0.584950 *   0.00000    1.000000
     19 C1    c    0.478740 *  0.522290 *  0.591870 *   0.00000    1.000000
     20 C1    c    0.476550 *  0.534820 *  0.597430 *   0.00000    1.000000
     21 C1    c    0.486470 *  0.545160 *  0.596060 *   0.00000    1.000000
     22 C1    c    0.479810 *  0.557870 *  0.594150 *   0.00000    1.000000
     23 C1    c    0.485210 *  0.567240 *  0.585480 *   0.00000    1.000000
     24 C1    c    0.497540 *  0.564450 *  0.578360 *   0.00000    1.000000
     25 C1    c    0.496590 *  0.569970 *  0.565170 *   0.00000    1.000000
     26 C1    c    0.501980 *  0.563030 *  0.554330 *   0.00000    1.000000
     27 C1    c    0.494660 *  0.562250 *  0.541870 *   0.00000    1.000000
     28 C1    c    0.496880 *  0.549180 *  0.536190 *   0.00000    1.000000
     29 C1    c    0.486540 *  0.542670 *  0.529410 *   0.00000    1.000000
     30 C1    c    0.484440 *  0.528640 *  0.531480 *   0.00000    1.000000
     31 C1    c    0.470100 *  0.526210 *  0.531500 *   0.00000    1.000000
     32 C1    c    0.464740 *  0.516760 *  0.540160 *   0.00000    1.000000
     33 C1    c    0.452430 *  0.519570 *  0.547270 *   0.00000    1.000000
     34 C1    c    0.453520 *  0.514010 *  0.560580 *   0.00000    1.000000
     35 C1    c    0.448070 *  0.520700 *  0.571370 *   0.00000    1.000000
     36 C1    c    0.455490 *  0.521530 *  0.583860 *   0.00000    1.000000
     37 C1    c    0.453200 *  0.534570 *  0.589590 *   0.00000    1.000000
     38 C1    c    0.463530 *  0.541180 *  0.596290 *   0.00000    1.000000
     39 C1    c    0.465530 *  0.555400 *  0.594270 *   0.00000    1.000000
     40 C1    c    0.457150 *  0.562450 *  0.585670 *   0.00000    1.000000
     41 C1    c    0.462820 *  0.572310 *  0.576570 *   0.00000    1.000000
     42 C1    c    0.476550 *  0.574670 *  0.576500 *   0.00000    1.000000
     43 C1    c    0.483610 *  0.576330 *  0.563910 *   0.00000    1.000000
     44 C1    c    0.476620 *  0.575570 *  0.551950 *   0.00000    1.000000
     45 C1    c    0.482250 *  0.568490 *  0.540680 *   0.00000    1.000000
     46 C1    c    0.471430 *  0.561690 *  0.533660 *   0.00000    1.000000
     47 C1    c    0.473560 *  0.549210 *  0.528160 *   0.00000    1.000000
     48 C1    c    0.463450 *  0.538880 *  0.529510 *   0.00000    1.000000
     49 C1    c    0.451590 *  0.541610 *  0.536280 *   0.00000    1.000000
     50 C1    c    0.445950 *  0.531770 *  0.545340 *   0.00000    1.000000
     51 C1    c    0.440240 *  0.538830 *  0.556670 *   0.00000    1.000000
     52 C1    c    0.441350 *  0.533390 *  0.569390 *   0.00000    1.000000
     53 C1    c    0.444480 *  0.542000 *  0.580700 *   0.00000    1.000000
     54 C1    c    0.446500 *  0.555520 *  0.578690 *   0.00000    1.000000
     55 C1    c    0.445420 *  0.561220 *  0.565340 *   0.00000    1.000000
     56 C1    c    0.442340 *  0.553010 *  0.554640 *   0.00000    1.000000
     57 C1    c    0.449340 *  0.554730 *  0.542010 *   0.00000    1.000000
     58 C1    c    0.459080 *  0.564550 *  0.540670 *   0.00000    1.000000
     59 C1    c    0.462300 *  0.573130 *  0.552080 *   0.00000    1.000000
     60 C1    c    0.455520 *  0.571500 *  0.564110 *   0.00000    1.000000

  Molecule list generated from bond lengths :

  Total number of molecules =     1

Molecule No./:  Atoms
Periodicity  :
     1  0    : C1   c     1 C1   c     2 C1   c     3 C1   c     4 C1   c     5
             : C1   c     6 C1   c     7 C1   c     8 C1   c     9 C1   c    10
             : C1   c    11 C1   c    12 C1   c    13 C1   c    14 C1   c    15
             : C1   c    16 C1   c    17 C1   c    18 C1   c    19 C1   c    20
             : C1   c    21 C1   c    22 C1   c    23 C1   c    24 C1   c    25
             : C1   c    26 C1   c    27 C1   c    28 C1   c    29 C1   c    30
             : C1   c    31 C1   c    32 C1   c    33 C1   c    34 C1   c    35
             : C1   c    36 C1   c    37 C1   c    38 C1   c    39 C1   c    40
             : C1   c    41 C1   c    42 C1   c    43 C1   c    44 C1   c    45
             : C1   c    46 C1   c    47 C1   c    48 C1   c    49 C1   c    50
             : C1   c    51 C1   c    52 C1   c    53 C1   c    54 C1   c    55
             : C1   c    56 C1   c    57 C1   c    58 C1   c    59 C1   c    60

  Brillouin zone sampling points :

  Point number          x          y          z            Weight
        1           0.000000   0.000000   0.000000         1.0000

*  General input information                                                   *

  Species output for all configurations :

  Species    Type    Atomic    Atomic    Charge       Radii (Angs)     Library
                     Number     Mass       (e)     Cova   Ionic  VDW   Symbol
    C1       Core        6      12.01   0.000000   0.770  0.000  1.530

  Lattice summation method = Wolf et al

  Modified method - smoothed energy only / correct forces

  Eta    =     0.223000 Angstrom**-1
  Cutoff =    12.000000 Angstrom

  Time limit = Infinity

  Maximum range for interatomic potentials =    100000.000000 Angstroms

  Intermolecular potentials :

Atom  Types   Potential         A         B         C         D     Cutoffs(Ang)
  1     2                                                            Min    Max
C1   c C1   c Lenn/es 12  6 0.700E-01  3.55      0.00      0.00     0.000 12.000

  Bond-order two-body potentials :

Atom  Types                 A                 B                  Cutoffs(Ang)
  1     2                 ZetaA             ZetaB                Taper    Max
C1   c C1   c          1393.6000000000       430.0000000000     1.8000   2.1000
                          3.487900000          2.211900000

  Bond-order repulsive :

Atom    Type         Alpha            N             Lambda          M
 1/2     1/2
C1   c             0.00000000       0.72751000       2.21190000       3
C1   c

  Bond-order attractive :

Atom    Type         Alpha            N             Lambda          M
 1/2     1/2           C              D                H
C1   c  Theta       0.00000016       0.72751000       2.21190000       3
C1   c          38049.00000000       4.38400000      -0.93000000

*  Output for configuration   1                                                *

  Components of energy :

  Interatomic potentials     =           0.00000000 eV
  Bond-order potentials      =        -431.62810209 eV
  Monopole - monopole (real) =           0.00000000 eV
  Monopole - monopole (recip)=           0.00000000 eV
  Monopole - monopole (total)=           0.00000000 eV
  Total lattice energy       =        -431.62810209 eV
  Total lattice energy       =          -41645.5138 kJ/(mole unit cells)

  Number of variables =      177

  Maximum number of calculations  =         10000
  Maximum Hessian update interval =            10
  Maximum step size               =   1.000000000
  Maximum parameter tolerance     =   0.000010000
  Maximum function  tolerance     =   0.000010000
  Maximum gradient  tolerance     =   0.001000000
  Maximum gradient  component     =   0.010000000

  Symmetry not applied to optimisation

  Newton-Raphson optimiser to be used

  BFGS hessian update to be used

  Start of bulk optimisation :

  ** Hessian calculated **

  XYZ File written as gulp.xyz

  **** Optimisation achieved ****

  Final energy =    -434.91727806 eV
  Final Gnorm  =       0.00002429

  Components of energy :

  Interatomic potentials     =           0.00000000 eV
  Bond-order potentials      =        -434.91727806 eV
  Monopole - monopole (real) =           0.00000000 eV
  Monopole - monopole (recip)=           0.00000000 eV
  Monopole - monopole (total)=           0.00000000 eV
  Total lattice energy       =        -434.91727806 eV
  Total lattice energy       =          -41962.8690 kJ/(mole unit cells)

  Final fractional coordinates of atoms :

   No.  Atomic        x           y          z          Radius
        Label       (Frac)      (Frac)     (Frac)       (Angs)
     1  C1    c     0.509930    0.530670    0.572150    0.000000
     2  C1    c     0.506833    0.522183    0.561010    0.000000
     3  C1    c     0.496478    0.511645    0.562366    0.000000
     4  C1    c     0.489564    0.509943    0.574817    0.000000
     5  C1    c     0.492768    0.518722    0.586341    0.000000
     6  C1    c     0.502779    0.528910    0.585030    0.000000
     7  C1    c     0.500493    0.542352    0.590879    0.000000
     8  C1    c     0.506232    0.552420    0.581614    0.000000
     9  C1    c     0.512064    0.545200    0.570039    0.000000
    10  C1    c     0.511030    0.550760    0.556858    0.000000
    11  C1    c     0.507826    0.541981    0.545334    0.000000
    12  C1    c     0.505763    0.527934    0.547375    0.000000
    13  C1    c     0.494747    0.520950    0.540304    0.000000
[...]
           z       0.0000      0.0000      0.0000
  48 C1    x       0.0000      0.0000      0.0000
           y       0.0000      0.0000      0.0000
           z       0.0000      0.0000      0.0000
  49 C1    x       0.0000      0.0000      0.0000
           y       0.0000      0.0000      0.0000
           z       0.0000      0.0000      0.0000
  50 C1    x       0.0000      0.0000      0.0000
           y       0.0000      0.0000      0.0000
           z       0.0000      0.0000      0.0000
  51 C1    x       0.0000      0.0000      0.0000
           y       0.0000      0.0000      0.0000
           z       0.0000      0.0000      0.0000
  52 C1    x       0.0000      0.0000      0.0000
           y       0.0000      0.0000      0.0000
           z       0.0000      0.0000      0.0000
  53 C1    x       0.0000      0.0000      0.0000
           y       0.0000      0.0000      0.0000
           z       0.0000      0.0000      0.0000
  54 C1    x       0.0000      0.0000      0.0000
           y       0.0000      0.0000      0.0000
           z       0.0000      0.0000      0.0000
  55 C1    x       0.0000      0.0000      0.0000
           y       0.0000      0.0000      0.0000
           z       0.0000      0.0000      0.0000
  56 C1    x       0.0000      0.0000      0.0000
           y       0.0000      0.0000      0.0000
           z       0.0000      0.0000      0.0000
  57 C1    x       0.0000      0.0000      0.0000
           y       0.0000      0.0000      0.0000
           z       0.0000      0.0000      0.0000
  58 C1    x       0.0000      0.0000      0.0000
           y       0.0000      0.0000      0.0000
           z       0.0000      0.0000      0.0000
  59 C1    x       0.0000      0.0000      0.0000
           y       0.0000      0.0000      0.0000
           z       0.0000      0.0000      0.0000
  60 C1    x       0.0000      0.0000      0.0000
           y       0.0000      0.0000      0.0000
           z       0.0000      0.0000      0.0000

  Elastic Constant Matrix: (Units=GPa)

  Indices      1         2         3         4         5         6
       1     -0.0000   -0.0000    0.0000   -0.0000   -0.0000   -0.0000
       2     -0.0000    0.0000   -0.0000    0.0000   -0.0000   -0.0000
       3      0.0000   -0.0000   -0.0000    0.0000    0.0000   -0.0000
       4     -0.0000    0.0000    0.0000    0.0000   -0.0000   -0.0000
       5      0.0000   -0.0000    0.0000   -0.0000   -0.0000   -0.0000
       6     -0.0000   -0.0000   -0.0000   -0.0000   -0.0000   -0.0000

  Mechanical properties :

  Convention :                    Reuss         Voigt         Hill
  Bulk  Modulus (GPa)     =       0.00000      -0.00000      -0.00000
  Shear Modulus (GPa)     = *************      -0.00000 *************
  Velocity S-wave (km/s)  = -632516.61139      -0.00094 -447256.78513
  Velocity P-wave (km/s)  =  730367.27170       0.00139  516447.65058
  Stress axis :                     x             y             z
  Youngs Moduli (GPa)     =       0.00000       0.00000       0.00000
  Poissons Ratio (x)      =                     0.00000      -0.00000
  Poissons Ratio (y)      =       0.00000                     0.00000
  Poissons Ratio (z)      =      -0.00000       0.00000

  Piezoelectric Strain Matrix: (Units=C/m**2)

  Indices      1         2         3         4         5         6
       x    -0.00000  -0.00000  -0.00000  -0.00000  -0.00000  -0.00000
       y    -0.00000  -0.00000  -0.00000  -0.00000  -0.00000  -0.00000
       z    -0.00000  -0.00000  -0.00000  -0.00000  -0.00000  -0.00000

  Piezoelectric Stress Matrix: (Units=10**-11 C/N)

  Indices      1         2         3         4         5         6
       x     0.00000   0.00000   0.00000   0.00000   0.00000   0.00000
       y     0.00000   0.00000   0.00000   0.00000   0.00000   0.00000
       z     0.00000   0.00000   0.00000   0.00000   0.00000   0.00000

  Static dielectric constant tensor :

              x         y         z
       x     1.00000   0.00000   0.00000
       y     0.00000   1.00000   0.00000
       z     0.00000   0.00000   1.00000

  Static refractive indices :

    1 =    1.00000      2 =    1.00000      3 =    1.00000

  Phonon Calculation :

  Number of k points for this configuration =        1

  K point      1 =   0.000000  0.000000  0.000000  Weight =    1.000

 Frequencies (cm-1) :

   -0.02    0.00    0.00    0.00    0.03    0.03  232.45  232.63  232.83
  232.90  233.10  287.68  287.89  288.05  325.73  326.17  326.56  326.85
  374.45  374.77  374.88  375.06  375.15  390.36  390.37  390.66  390.81
  391.11  403.53  403.59  403.77  403.85  457.71  457.80  458.09  458.24
  458.52  463.04  538.93  539.22  539.39  540.09  542.39  542.70  543.11
  580.84  581.06  581.16  621.30  621.68  622.16  625.47  625.64  625.80
  652.84  653.12  653.23  653.46  694.89  695.42  695.72  719.06  719.38
  719.51  719.60  719.99  743.55  744.29  744.82  745.02  745.79  756.95
  757.45  757.54  757.77  758.24  775.30  775.53  775.69  824.98  825.19
  825.26  825.33  825.57  887.69  888.16  888.17  888.49  900.42  900.55
  900.89  905.32  905.91  906.22  908.50  908.69  909.43  909.83 1002.41
 1003.41 1003.73 1003.90 1004.67 1033.07 1033.20 1033.36 1033.82 1036.92
 1036.97 1037.04 1074.75 1075.44 1075.72 1122.22 1123.40 1123.93 1124.99
 1148.87 1152.79 1153.47 1153.88 1154.09 1155.31 1252.05 1252.61 1253.48
 1263.72 1264.17 1264.31 1264.61 1264.87 1325.11 1325.42 1325.64 1350.02
 1350.51 1350.62 1351.27 1351.92 1383.43 1383.95 1384.67 1384.90 1385.07
 1385.39 1385.88 1386.56 1415.06 1415.17 1415.53 1426.92 1427.09 1427.19
 1428.28 1428.35 1428.72 1428.86 1452.18 1452.33 1452.72 1452.79 1452.95
 1453.15 1453.31 1453.50 1453.75 1454.00 1467.53 1467.73 1467.97 1468.13
 1494.61 1494.65 1494.69 1494.76 1494.88 1553.36 1553.41 1553.44 1592.81

  Thermal conductivity:

  Lorentzian broadening factor =     1.7797 cm-1

 Mode    : Frequency (cm-1)         Thermal conductivity (cm**2/s)
     5        0.0252                  0.00000147005888
     6        0.0350                  0.00000437808160
     7      232.4500                  0.00000000038976
     8      232.6305                  0.00000000006951
     9      232.8306                  0.00000000012025
    10      232.9038                  0.00000000007497
    11      233.0992                  0.00000000036993
    12      287.6777                  0.00000000002295
    13      287.8910                  0.00000000002739
    14      288.0511                  0.00000000001377
    15      325.7336                  0.00000000026397
    16      326.1731                  0.00000000042554
    17      326.5600                  0.00000000032735
    18      326.8529                  0.00000000057351
    19      374.4499                  0.00000000030090
    20      374.7717                  0.00000000005962
    21      374.8807                  0.00000000011475
    22      375.0590                  0.00000000009322
    23      375.1488                  0.00000000025860
    24      390.3579                  0.00000000063301
    25      390.3734                  0.00000000041299
    26      390.6579                  0.00000000035438
    27      390.8074                  0.00000000050902
    28      391.1071                  0.00000000067649
    29      403.5338                  0.00000000010203
    30      403.5880                  0.00000000001896
    31      403.7708                  0.00000000007063
    32      403.8548                  0.00000000007074
    33      457.7080                  0.00000000190797
    34      457.7959                  0.00000000280348
    35      458.0949                  0.00000000095583
    36      458.2416                  0.00000000193643
    37      458.5217                  0.00000000375475
    38      463.0441                  0.00000000794492
    39      538.9310                  0.00000000278244
    40      539.2211                  0.00000000674345
    41      539.3943                  0.00000000277395
    42      540.0936                  0.00000000564264
    43      542.3879                  0.00000000690069
    44      542.6962                  0.00000000348254
    45      543.1131                  0.00000000594432
    46      580.8363                  0.00000000013849
    47      581.0648                  0.00000000009834
    48      581.1640                  0.00000000006071
    49      621.2954                  0.00000001232423
    50      621.6761                  0.00000001700271
    51      622.1596                  0.00000000862530
    52      625.4725                  0.00000001179921
    53      625.6440                  0.00000002131405
    54      625.8048                  0.00000000404879
    55      652.8374                  0.00000000142101
    56      653.1153                  0.00000000026968
    57      653.2274                  0.00000000106030
    58      653.4650                  0.00000000092588
    59      694.8914                  0.00000000878801
    60      695.4179                  0.00000000190452
    61      695.7250                  0.00000000752509
    62      719.0592                  0.00000000070316
    63      719.3759                  0.00000000045003
    64      719.5066                  0.00000000052159
[...]
   166     1453.7505                  0.00000704082923
   167     1453.9957                  0.00000754775912
   168     1467.5339                  0.00000000141698
   169     1467.7298                  0.00000000124660
   170     1467.9702                  0.00000000100588
   171     1468.1285                  0.00000000143531
   172     1494.6060                  0.00000000033675
   173     1494.6549                  0.00000000042829
   174     1494.6946                  0.00000000007200
   175     1494.7622                  0.00000000019507
   176     1494.8771                  0.00000000068966
   177     1553.3617                  0.00000000000100
   178     1553.4140                  0.00000000000047
   179     1553.4373                  0.00000000000088
   180     1592.8086                  0.00000000000000
  Thermal conductivity =     0.000001 W/(m.K)

  Phonon properties (per mole of unit cells): Temperature =  50000.000 K
  Zero point energy            =       10.094224 eV
  Entropy                      =        0.070909 eV/K
                               =     6841.592397 J/(mol.K)
  Helmholtz free-energy        =    -3230.583952 eV
                               =  -311701.940081 kJmol-1
  Free energy (equipartition)  =    -3230.610725 eV
  - T*S       (equipartition)  =    -3545.401689 eV
  Uvib        (equipartition)  =      749.708242 eV
  Mean kinetic energy          =      387.806899 eV
  Heat capacity - const volume =        0.014993 eV/K
                               =     1446.604250 J/(mol.K)

  Phonon density of states :

 Frequency (cm-1) Density of States
    0.00000 |*********************                                         0.028
   24.88764 |                                                              0.000
   49.77527 |                                                              0.000
   74.66291 |                                                              0.000
   99.55054 |                                                              0.000
  124.43818 |                                                              0.000
  149.32581 |                                                              0.000
  174.21345 |                                                              0.000
  199.10108 |                                                              0.000
  223.98872 |*********************                                         0.028
  248.87635 |                                                              0.000
  273.76399 |************                                                  0.017
  298.65162 |                                                              0.000
  323.53926 |*****************                                             0.022
  348.42689 |                                                              0.000
  373.31453 |******************************************                    0.056
  398.20216 |*****************                                             0.022
  423.08980 |                                                              0.000
  447.97743 |*************************                                     0.034
  472.86507 |                                                              0.000
  497.75270 |                                                              0.000
  522.64034 |******************************                                0.039
  547.52797 |                                                              0.000
  572.41561 |************                                                  0.017
  597.30324 |************                                                  0.017
  622.19088 |************                                                  0.017
  647.07851 |*****************                                             0.022
  671.96615 |************                                                  0.017
  696.85378 |*********************                                         0.028
  721.74142 |*********************                                         0.028
  746.62905 |*********************                                         0.028
  771.51669 |************                                                  0.017
  796.40433 |                                                              0.000
  821.29196 |*********************                                         0.028
  846.17960 |                                                              0.000
  871.06723 |*****************                                             0.022
  895.95487 |******************************************                    0.056
  920.84250 |                                                              0.000
  945.73014 |                                                              0.000
  970.61777 |                                                              0.000
  995.50541 |*********************                                         0.028
 1020.39304 |******************************                                0.039
 1045.28068 |                                                              0.000
 1070.16831 |************                                                  0.017
 1095.05595 |                                                              0.000
 1119.94358 |*****************                                             0.022
 1144.83122 |*************************                                     0.034
 1169.71885 |                                                              0.000
 1194.60649 |                                                              0.000
 1219.49412 |                                                              0.000
 1244.38176 |**********************************                            0.045
 1269.26939 |                                                              0.000
 1294.15703 |                                                              0.000
 1319.04466 |************                                                  0.017
 1343.93230 |*********************                                         0.028
 1368.81993 |**********************************                            0.045
 1393.70757 |************                                                  0.017
 1418.59520 |******************************                                0.039
 1443.48284 |************************************************************  0.078
 1468.37047 |                                                              0.000
 1493.25811 |*********************                                         0.028
 1518.14575 |                                                              0.000
 1543.03338 |************                                                  0.017
 1567.92102 |****                                                          0.006

  Time to end of optimisation =       0.4600 seconds

  Timing analysis for GULP :

  Task / Subroutine                                          Time (Seconds)
  Calculation of real space energy and derivatives                0.0680
  Calculation of Bond Order energy and derivatives                0.0440
  Calculation of molecules and connectivity                       0.0560
  Calculation of phonons                                          0.2520
  Calculation of scattering                                       0.0000
  Calculation of matrix inversion                                 0.0080

  LAMMPS file written on channel 26

  Job Finished at 14:50.09  8th July       2013