  Job Started  at 14:41.59  8th July       2013

  Number of CPUs =     1

  Total number of configurations input =   1

*  Input for Configuration =   1                                               *

  Formula = C60

  Number of irreducible atoms/shells =      60

  Total number atoms/shells =      60

  Dimensionality = 3               :  Bulk

  Cartesian lattice vectors (Angstroms) :

      100.000000    0.000000    0.000000
        0.000000  100.000000    0.000000
        0.000000    0.000000  100.000000

  Cell parameters (Angstroms/Degrees):

  a =     100.0000    alpha =  90.0000
  b =     100.0000    beta  =  90.0000
  c =     100.0000    gamma =  90.0000

  Initial cell volume =     1000000.000000 Angs**3

  Temperature of configuration = 0.5000E+05 K

  Pressure of configuration =         0.000 GPa

  Fractional coordinates of asymmetric unit :

   No.  Atomic       x           y          z         Charge      Occupancy
        Label      (Frac)      (Frac)     (Frac)        (e)         (Frac)
      1 C1    c    0.509930    0.530670    0.572150     0.00000    1.000000
      2 C1    c    0.506450 *  0.521040 *  0.559520 *   0.00000    1.000000
      3 C1    c    0.494670 *  0.512100 *  0.561460 *   0.00000    1.000000
      4 C1    c    0.488070 *  0.510710 *  0.573510 *   0.00000    1.000000
      5 C1    c    0.491250 *  0.519410 *  0.584940 *   0.00000    1.000000
      6 C1    c    0.500860 *  0.529150 *  0.583900 *   0.00000    1.000000
      7 C1    c    0.498250 *  0.542330 *  0.589170 *   0.00000    1.000000
      8 C1    c    0.503860 *  0.552170 *  0.580140 *   0.00000    1.000000
      9 C1    c    0.509970 *  0.545160 *  0.569060 *   0.00000    1.000000
     10 C1    c    0.508850 *  0.550420 *  0.556430 *   0.00000    1.000000
     11 C1    c    0.505550 *  0.541690 *  0.544960 *   0.00000    1.000000
     12 C1    c    0.503770 *  0.528150 *  0.546730 *   0.00000    1.000000
     13 C1    c    0.492710 *  0.521620 *  0.540160 *   0.00000    1.000000
     14 C1    c    0.487090 *  0.511860 *  0.549230 *   0.00000    1.000000
     15 C1    c    0.473460 *  0.509420 *  0.549120 *   0.00000    1.000000
     16 C1    c    0.466560 *  0.507600 *  0.561700 *   0.00000    1.000000
     17 C1    c    0.473710 *  0.508420 *  0.573570 *   0.00000    1.000000
     18 C1    c    0.468000 *  0.515440 *  0.584950 *   0.00000    1.000000
     19 C1    c    0.478740 *  0.522290 *  0.591870 *   0.00000    1.000000
     20 C1    c    0.476550 *  0.534820 *  0.597430 *   0.00000    1.000000
     21 C1    c    0.486470 *  0.545160 *  0.596060 *   0.00000    1.000000
     22 C1    c    0.479810 *  0.557870 *  0.594150 *   0.00000    1.000000
     23 C1    c    0.485210 *  0.567240 *  0.585480 *   0.00000    1.000000
     24 C1    c    0.497540 *  0.564450 *  0.578360 *   0.00000    1.000000
     25 C1    c    0.496590 *  0.569970 *  0.565170 *   0.00000    1.000000
     26 C1    c    0.501980 *  0.563030 *  0.554330 *   0.00000    1.000000
     27 C1    c    0.494660 *  0.562250 *  0.541870 *   0.00000    1.000000
     28 C1    c    0.496880 *  0.549180 *  0.536190 *   0.00000    1.000000
     29 C1    c    0.486540 *  0.542670 *  0.529410 *   0.00000    1.000000
     30 C1    c    0.484440 *  0.528640 *  0.531480 *   0.00000    1.000000
     31 C1    c    0.470100 *  0.526210 *  0.531500 *   0.00000    1.000000
     32 C1    c    0.464740 *  0.516760 *  0.540160 *   0.00000    1.000000
     33 C1    c    0.452430 *  0.519570 *  0.547270 *   0.00000    1.000000
     34 C1    c    0.453520 *  0.514010 *  0.560580 *   0.00000    1.000000
     35 C1    c    0.448070 *  0.520700 *  0.571370 *   0.00000    1.000000
     36 C1    c    0.455490 *  0.521530 *  0.583860 *   0.00000    1.000000
     37 C1    c    0.453200 *  0.534570 *  0.589590 *   0.00000    1.000000
     38 C1    c    0.463530 *  0.541180 *  0.596290 *   0.00000    1.000000
     39 C1    c    0.465530 *  0.555400 *  0.594270 *   0.00000    1.000000
     40 C1    c    0.457150 *  0.562450 *  0.585670 *   0.00000    1.000000
     41 C1    c    0.462820 *  0.572310 *  0.576570 *   0.00000    1.000000
     42 C1    c    0.476550 *  0.574670 *  0.576500 *   0.00000    1.000000
     43 C1    c    0.483610 *  0.576330 *  0.563910 *   0.00000    1.000000
     44 C1    c    0.476620 *  0.575570 *  0.551950 *   0.00000    1.000000
     45 C1    c    0.482250 *  0.568490 *  0.540680 *   0.00000    1.000000
     46 C1    c    0.471430 *  0.561690 *  0.533660 *   0.00000    1.000000
     47 C1    c    0.473560 *  0.549210 *  0.528160 *   0.00000    1.000000
     48 C1    c    0.463450 *  0.538880 *  0.529510 *   0.00000    1.000000
     49 C1    c    0.451590 *  0.541610 *  0.536280 *   0.00000    1.000000
     50 C1    c    0.445950 *  0.531770 *  0.545340 *   0.00000    1.000000
     51 C1    c    0.440240 *  0.538830 *  0.556670 *   0.00000    1.000000
     52 C1    c    0.441350 *  0.533390 *  0.569390 *   0.00000    1.000000
     53 C1    c    0.444480 *  0.542000 *  0.580700 *   0.00000    1.000000
     54 C1    c    0.446500 *  0.555520 *  0.578690 *   0.00000    1.000000
     55 C1    c    0.445420 *  0.561220 *  0.565340 *   0.00000    1.000000
     56 C1    c    0.442340 *  0.553010 *  0.554640 *   0.00000    1.000000
     57 C1    c    0.449340 *  0.554730 *  0.542010 *   0.00000    1.000000
     58 C1    c    0.459080 *  0.564550 *  0.540670 *   0.00000    1.000000
     59 C1    c    0.462300 *  0.573130 *  0.552080 *   0.00000    1.000000
     60 C1    c    0.455520 *  0.571500 *  0.564110 *   0.00000    1.000000

  Molecule list generated from bond lengths :

  Total number of molecules =     1

Molecule No./:  Atoms
Periodicity  :
     1  0    : C1   c     1 C1   c     2 C1   c     3 C1   c     4 C1   c     5
             : C1   c     6 C1   c     7 C1   c     8 C1   c     9 C1   c    10
             : C1   c    11 C1   c    12 C1   c    13 C1   c    14 C1   c    15
             : C1   c    16 C1   c    17 C1   c    18 C1   c    19 C1   c    20
             : C1   c    21 C1   c    22 C1   c    23 C1   c    24 C1   c    25
             : C1   c    26 C1   c    27 C1   c    28 C1   c    29 C1   c    30
             : C1   c    31 C1   c    32 C1   c    33 C1   c    34 C1   c    35
             : C1   c    36 C1   c    37 C1   c    38 C1   c    39 C1   c    40
             : C1   c    41 C1   c    42 C1   c    43 C1   c    44 C1   c    45
             : C1   c    46 C1   c    47 C1   c    48 C1   c    49 C1   c    50
             : C1   c    51 C1   c    52 C1   c    53 C1   c    54 C1   c    55
             : C1   c    56 C1   c    57 C1   c    58 C1   c    59 C1   c    60

  Brillouin zone sampling points :

  Point number          x          y          z            Weight
        1           0.000000   0.000000   0.000000         1.0000

*  General input information                                                   *

  Species output for all configurations :

  Species    Type    Atomic    Atomic    Charge       Radii (Angs)     Library
                     Number     Mass       (e)     Cova   Ionic  VDW   Symbol
    C1       Core        6      12.01   0.000000   0.770  0.000  1.530

  Lattice summation method = Wolf et al

  Modified method - smoothed energy only / correct forces

  Eta    =     0.223000 Angstrom**-1
  Cutoff =    12.000000 Angstrom

  Time limit = Infinity

  Maximum range for interatomic potentials =    100000.000000 Angstroms

  Intermolecular potentials :

Atom  Types   Potential         A         B         C         D     Cutoffs(Ang)
  1     2                                                            Min    Max
C1   c C1   c Lenn/es 12  6 0.700E-01  3.55      0.00      0.00     0.000 12.000

  Bond-order two-body potentials :

Atom  Types                 A                 B                  Cutoffs(Ang)
  1     2                 ZetaA             ZetaB                Taper    Max
C1   c C1   c          1393.6000000000       346.7000000000     1.8000   2.1000
                          3.487900000          2.211900000

  Bond-order repulsive :

Atom    Type         Alpha            N             Lambda          M
 1/2     1/2
C1   c             0.00000000       0.72751000       2.21190000       3
C1   c

  Bond-order attractive :

Atom    Type         Alpha            N             Lambda          M
 1/2     1/2           C              D                H
C1   c  Theta       0.00000016       0.72751000       2.21190000       3
C1   c          38049.00000000       4.38400000      -0.57058000

*  Output for configuration   1                                                *

  Components of energy :

  Interatomic potentials     =           0.00000000 eV
  Bond-order potentials      =        -398.05680766 eV
  Monopole - monopole (real) =           0.00000000 eV
  Monopole - monopole (recip)=           0.00000000 eV
  Monopole - monopole (total)=           0.00000000 eV
  Total lattice energy       =        -398.05680766 eV
  Total lattice energy       =          -38406.3971 kJ/(mole unit cells)

  Number of variables =      177

  Maximum number of calculations  =         10000
  Maximum Hessian update interval =            10
  Maximum step size               =   1.000000000
  Maximum parameter tolerance     =   0.000010000
  Maximum function  tolerance     =   0.000010000
  Maximum gradient  tolerance     =   0.001000000
  Maximum gradient  component     =   0.010000000

  Symmetry not applied to optimisation

  Newton-Raphson optimiser to be used

  BFGS hessian update to be used

  Start of bulk optimisation :

  ** Hessian calculated **

  XYZ File written as gulp.xyz

  **** Optimisation achieved ****

  Final energy =    -404.94433315 eV
  Final Gnorm  =       0.00003361

  Components of energy :

  Interatomic potentials     =           0.00000000 eV
  Bond-order potentials      =        -404.94433315 eV
  Monopole - monopole (real) =           0.00000000 eV
  Monopole - monopole (recip)=           0.00000000 eV
  Monopole - monopole (total)=           0.00000000 eV
  Total lattice energy       =        -404.94433315 eV
  Total lattice energy       =          -39070.9380 kJ/(mole unit cells)

  Final fractional coordinates of atoms :

   No.  Atomic        x           y          z          Radius
        Label       (Frac)      (Frac)     (Frac)       (Angs)
     1  C1    c     0.509930    0.530670    0.572150    0.000000
     2  C1    c     0.506770    0.522035    0.560807    0.000000
     3  C1    c     0.496291    0.511376    0.562179    0.000000
     4  C1    c     0.489258    0.509642    0.574857    0.000000
     5  C1    c     0.492506    0.518518    0.586517    0.000000
     6  C1    c     0.502700    0.528887    0.585183    0.000000
     7  C1    c     0.500394    0.542485    0.591106    0.000000
     8  C1    c     0.506199    0.552672    0.581734    0.000000
     9  C1    c     0.512093    0.545370    0.570019    0.000000
    10  C1    c     0.511037    0.551035    0.556602    0.000000
    11  C1    c     0.507788    0.542159    0.544942    0.000000
    12  C1    c     0.505684    0.527859    0.547015    0.000000
    13  C1    c     0.494534    0.520799    0.539864    0.000000
[...]
           y       0.0000      0.0000      0.0000
           z       0.0000      0.0000      0.0000
  52 C1    x       0.0000      0.0000      0.0000
           y       0.0000      0.0000      0.0000
           z       0.0000      0.0000      0.0000
  53 C1    x       0.0000      0.0000      0.0000
           y       0.0000      0.0000      0.0000
           z       0.0000      0.0000      0.0000
  54 C1    x       0.0000      0.0000      0.0000
           y       0.0000      0.0000      0.0000
           z       0.0000      0.0000      0.0000
  55 C1    x       0.0000      0.0000      0.0000
           y       0.0000      0.0000      0.0000
           z       0.0000      0.0000      0.0000
  56 C1    x       0.0000      0.0000      0.0000
           y       0.0000      0.0000      0.0000
           z       0.0000      0.0000      0.0000
  57 C1    x       0.0000      0.0000      0.0000
           y       0.0000      0.0000      0.0000
           z       0.0000      0.0000      0.0000
  58 C1    x       0.0000      0.0000      0.0000
           y       0.0000      0.0000      0.0000
           z       0.0000      0.0000      0.0000
  59 C1    x       0.0000      0.0000      0.0000
           y       0.0000      0.0000      0.0000
           z       0.0000      0.0000      0.0000
  60 C1    x       0.0000      0.0000      0.0000
           y       0.0000      0.0000      0.0000
           z       0.0000      0.0000      0.0000

  Elastic Constant Matrix: (Units=GPa)

  Indices      1         2         3         4         5         6
       1     -0.0000    0.0000    0.0000    0.0000    0.0000   -0.0000
       2      0.0000   -0.0000    0.0000   -0.0000   -0.0000    0.0000
       3     -0.0000    0.0000   -0.0000   -0.0000   -0.0000   -0.0000
       4     -0.0000   -0.0000   -0.0000   -0.0000   -0.0000    0.0000
       5      0.0000   -0.0000   -0.0000   -0.0000   -0.0000    0.0000
       6     -0.0000    0.0000   -0.0000    0.0000    0.0000   -0.0000

  Elastic Compliance Matrix: (Units=1/GPa)

  Indices      1         2         3         4         5         6
       1  ************************************************************
       2  ************************************************************
       3  ************************************************************
       4  ************************************************************
       5  ************************************************************
       6  ************************************************************

  Mechanical properties :

  Convention :                    Reuss         Voigt         Hill
  Bulk  Modulus (GPa)     =      -0.00000      -0.00000      -0.00000
  Shear Modulus (GPa)     =      -0.00000      -0.00000      -0.00000
  Velocity S-wave (km/s)  =      -0.00649      -0.00642      -0.00645
  Velocity P-wave (km/s)  =       0.00863       0.00757       0.00812
  Compressibility (1/GPa) = *************
  Stress axis :                     x             y             z
  Youngs Moduli (GPa)     =      -0.00000      -0.00000      -0.00000
  Poissons Ratio (x)      =                    -0.36954      -0.98578
  Poissons Ratio (y)      =      -1.44068                    -0.20951
  Poissons Ratio (z)      =      -3.05321      -0.16645

  Piezoelectric Strain Matrix: (Units=C/m**2)

  Indices      1         2         3         4         5         6
       x    -0.00000  -0.00000  -0.00000  -0.00000  -0.00000  -0.00000
       y    -0.00000  -0.00000  -0.00000  -0.00000  -0.00000  -0.00000
       z    -0.00000  -0.00000  -0.00000  -0.00000  -0.00000  -0.00000

  Piezoelectric Stress Matrix: (Units=10**-11 C/N)

  Indices      1         2         3         4         5         6
       x     0.00000   0.00000   0.00000   0.00000   0.00000   0.00000
       y     0.00000   0.00000   0.00000   0.00000   0.00000   0.00000
       z     0.00000   0.00000   0.00000   0.00000   0.00000   0.00000

  Static dielectric constant tensor :

              x         y         z
       x     1.00000   0.00000   0.00000
       y     0.00000   1.00000   0.00000
       z     0.00000   0.00000   1.00000

  Static refractive indices :

    1 =    1.00000      2 =    1.00000      3 =    1.00000

  Phonon Calculation :

  Number of k points for this configuration =        1

  K point      1 =   0.000000  0.000000  0.000000  Weight =    1.000

 Frequencies (cm-1) :

   -0.05   -0.03   -0.00   -0.00    0.00    0.01  280.80  280.84  280.89
  280.91  280.94  358.58  358.64  358.70  375.22  375.28  375.35  375.40
  432.53  432.62  432.63  432.66  432.70  441.16  449.34  449.34  449.38
  449.38  452.70  452.73  452.76  452.83  452.85  511.93  511.96  512.03
  512.04  512.09  525.84  525.86  525.87  618.64  618.68  618.72  634.84
  634.87  635.01  635.09  657.41  657.43  657.44  702.53  702.56  702.58
  718.28  718.43  718.43  718.55  718.61  740.08  740.08  740.10  740.11
  749.85  749.93  750.00  758.64  758.84  758.89  758.97  759.12  797.39
  797.51  797.52  797.53  797.65  851.74  851.94  851.94  852.14  872.03
  872.14  872.26  930.24  930.43  930.59  930.86  947.19  947.33  947.47
  947.49  947.65  988.75  988.79  988.86 1081.92 1081.99 1082.12 1101.72
 1101.75 1101.77 1101.86 1117.54 1117.84 1117.94 1118.04 1118.19 1137.09
 1137.10 1137.12 1168.34 1168.64 1168.71 1220.71 1220.89 1220.98 1221.07
 1302.75 1302.81 1302.89 1385.94 1385.98 1386.01 1386.04 1386.08 1390.55
 1390.77 1390.79 1390.80 1391.04 1549.83 1550.02 1550.05 1550.24 1578.51
 1578.68 1578.79 1578.89 1594.85 1597.43 1597.47 1597.53 1613.05 1613.12
 1613.16 1613.16 1613.25 1642.80 1642.87 1642.90 1755.75 1800.34 1800.38
 1800.50 1826.35 1826.49 1826.50 1828.75 1828.84 1828.98 1829.02 1829.18
 1896.88 1896.97 1896.99 1897.02 1912.15 1912.23 1912.30 1912.32 1916.42
 1916.48 1916.49 1916.50 1916.55 1924.32 1924.34 1924.36 1924.40 1924.41

  Thermal conductivity:

  Lorentzian broadening factor =     2.1502 cm-1

 Mode    : Frequency (cm-1)         Thermal conductivity (cm**2/s)
     7      280.8015                  0.00000000000068
     8      280.8401                  0.00000000000014
     9      280.8917                  0.00000000000015
    10      280.9105                  0.00000000000017
    11      280.9435                  0.00000000000059
    12      358.5834                  0.00000000000008
    13      358.6421                  0.00000000000014
    14      358.6978                  0.00000000000010
    15      375.2180                  0.00000000000029
    16      375.2758                  0.00000000000086
    17      375.3454                  0.00000000000052
    18      375.4042                  0.00000000000103
    19      432.5319                  0.00000000000245
    20      432.6151                  0.00000000000030
    21      432.6271                  0.00000000000103
    22      432.6577                  0.00000000000113
    23      432.7044                  0.00000000000145
    24      441.1601                  0.00000000000000
    25      449.3364                  0.00000000047024
    26      449.3396                  0.00000000067095
    27      449.3760                  0.00000000035545
    28      449.3831                  0.00000000081937
    29      452.6981                  0.00000000066851
    30      452.7250                  0.00000000038966
    31      452.7583                  0.00000000034398
    32      452.8314                  0.00000000061390
    33      452.8546                  0.00000000027130
    34      511.9252                  0.00000000000307
    35      511.9634                  0.00000000000156
    36      512.0341                  0.00000000000085
    37      512.0440                  0.00000000000070
    38      512.0900                  0.00000000000329
    39      525.8390                  0.00000000000000
    40      525.8559                  0.00000000000000
    41      525.8684                  0.00000000000000
    42      618.6354                  0.00000000000063
    43      618.6800                  0.00000000000022
    44      618.7180                  0.00000000000051
    45      634.8388                  0.00000000000069
    46      634.8683                  0.00000000000031
    47      635.0056                  0.00000000000051
    48      635.0852                  0.00000000000060
    49      657.4112                  0.00000000000009
    50      657.4265                  0.00000000000003
    51      657.4449                  0.00000000000010
    52      702.5334                  0.00000000000001
    53      702.5559                  0.00000000000001
    54      702.5790                  0.00000000000002
    55      718.2771                  0.00000000002658
    56      718.4271                  0.00000000000693
    57      718.4321                  0.00000000001019
    58      718.5469                  0.00000000001125
    59      718.6116                  0.00000000002395
    60      740.0794                  0.00000000000002
    61      740.0819                  0.00000000000002
    62      740.1012                  0.00000000000002
    63      740.1058                  0.00000000000002
    64      749.8477                  0.00000000005946
    65      749.9325                  0.00000000001694
    66      750.0016                  0.00000000005319
[...]
   166     1897.0207                  0.00000000005090
   167     1912.1534                  0.00000003917928
   168     1912.2275                  0.00000003779358
   169     1912.2976                  0.00000002994416
   170     1912.3215                  0.00000003399143
   171     1916.4199                  0.00008766875937
   172     1916.4751                  0.00008762708209
   173     1916.4864                  0.00008779056126
   174     1916.4970                  0.00008758092981
   175     1916.5507                  0.00008782163588
   176     1924.3211                  0.00008622781591
   177     1924.3389                  0.00008619635576
   178     1924.3583                  0.00008691143601
   179     1924.3977                  0.00008776858205
   180     1924.4072                  0.00008766243782
  Thermal conductivity =     0.000003 W/(m.K)

  Phonon properties (per mole of unit cells): Temperature =  50000.000 K
  Zero point energy            =       11.670059 eV
  Entropy                      =        0.068988 eV/K
                               =     6656.240395 J/(mol.K)
  Helmholtz free-energy        =    -3104.537749 eV
                               =  -299540.409332 kJmol-1
  Free energy (equipartition)  =    -3104.574886 eV
  - T*S       (equipartition)  =    -3449.338795 eV
  Uvib        (equipartition)  =      749.708242 eV
  Mean kinetic energy          =      387.817262 eV
  Heat capacity - const volume =        0.014993 eV/K
                               =     1446.564257 J/(mol.K)

  Phonon density of states :

 Frequency (cm-1) Density of States
    0.00000 |******                                                        0.011
   30.06886 |                                                              0.000
   60.13773 |                                                              0.000
   90.20659 |                                                              0.000
  120.27545 |                                                              0.000
  150.34431 |                                                              0.000
  180.41318 |                                                              0.000
  210.48204 |                                                              0.000
  240.55090 |                                                              0.000
  270.61976 |****************                                              0.028
  300.68863 |                                                              0.000
  330.75749 |**********                                                    0.017
  360.82635 |*************                                                 0.023
  390.89522 |                                                              0.000
  420.96408 |*********************************                             0.057
  451.03294 |****************                                              0.028
  481.10180 |                                                              0.000
  511.17067 |**************************                                    0.045
  541.23953 |                                                              0.000
  571.30839 |                                                              0.000
  601.37726 |**********                                                    0.017
  631.44612 |***********************                                       0.040
  661.51498 |                                                              0.000
  691.58384 |**************************                                    0.045
  721.65271 |***********************                                       0.040
  751.72157 |****************                                              0.028
  781.79043 |****************                                              0.028
  811.85929 |                                                              0.000
  841.92816 |*************                                                 0.023
  871.99702 |**********                                                    0.017
  902.06588 |*************                                                 0.023
  932.13475 |****************                                              0.028
  962.20361 |**********                                                    0.017
  992.27247 |                                                              0.000
 1022.34133 |                                                              0.000
 1052.41020 |**********                                                    0.017
 1082.47906 |*************                                                 0.023
 1112.54792 |**************************                                    0.045
 1142.61679 |**********                                                    0.017
 1172.68565 |                                                              0.000
 1202.75451 |*************                                                 0.023
 1232.82337 |                                                              0.000
 1262.89224 |                                                              0.000
 1292.96110 |**********                                                    0.017
 1323.02996 |                                                              0.000
 1353.09882 |                                                              0.000
 1383.16769 |*********************************                             0.057
 1413.23655 |                                                              0.000
 1443.30541 |                                                              0.000
 1473.37428 |                                                              0.000
 1503.44314 |                                                              0.000
 1533.51200 |*************                                                 0.023
 1563.58086 |*************                                                 0.023
 1593.64973 |******************************                                0.051
 1623.71859 |**********                                                    0.017
 1653.78745 |                                                              0.000
 1683.85631 |                                                              0.000
 1713.92518 |                                                              0.000
 1743.99404 |***                                                           0.006
 1774.06290 |**********                                                    0.017
 1804.13177 |**************************                                    0.045
 1834.20063 |                                                              0.000
 1864.26949 |                                                              0.000
 1894.33835 |************************************************************  0.102

  Time to end of optimisation =       0.4720 seconds

  Timing analysis for GULP :

  Task / Subroutine                                          Time (Seconds)
  Calculation of real space energy and derivatives                0.1000
  Calculation of Bond Order energy and derivatives                0.0240
  Calculation of molecules and connectivity                       0.0560
  Calculation of phonons                                          0.2480
  Calculation of scattering                                       0.0000
  Calculation of matrix inversion                                 0.0080

  LAMMPS file written on channel 26

  Job Finished at 14:42.00  8th July       2013