  Job Started  at 14:52.55  1st July       2013

  Number of CPUs =     1

  Total number of configurations input =   1

*  Input for Configuration =   1                                               *

  Formula = C60

  Number of irreducible atoms/shells =      60

  Total number atoms/shells =      60

  Dimensionality = 3               :  Bulk

  Cartesian lattice vectors (Angstroms) :

      100.000000    0.000000    0.000000
        0.000000  100.000000    0.000000
        0.000000    0.000000  100.000000

  Cell parameters (Angstroms/Degrees):

  a =     100.0000    alpha =  90.0000
  b =     100.0000    beta  =  90.0000
  c =     100.0000    gamma =  90.0000

  Initial cell volume =     1000000.000000 Angs**3

  Temperature of configuration =  0.000     K

  Pressure of configuration =         0.000 GPa

  Fractional coordinates of asymmetric unit :

   No.  Atomic       x           y          z         Charge      Occupancy
        Label      (Frac)      (Frac)     (Frac)        (e)         (Frac)
      1 C     c    0.964449    0.946228    0.010258     0.00000    1.000000
      2 C     c    0.967453 *  0.953214 *  0.023072 *   0.00000    1.000000
      3 C     c    0.960907 *  0.964599 *  0.027200 *   0.00000    1.000000
      4 C     c    0.968045 *  0.974628 *  0.034746 *   0.00000    1.000000
      5 C     c    0.981458 *  0.972902 *  0.037967 *   0.00000    1.000000
      6 C     c    0.988346 *  0.961111 *  0.033433 *   0.00000    1.000000
      7 C     c    0.981459 *  0.951667 *  0.025943 *   0.00000    1.000000
      8 C     c    0.009323 *  0.001687 *  0.005091 *   0.00000    1.000000
      9 C     c    0.005896 *  0.999812 *  0.019038 *   0.00000    1.000000
     10 C     c    0.010655 *  0.986757 *  0.023094 *   0.00000    1.000000
     11 C     c    0.001864 *  0.964845 *  0.029720 *   0.00000    1.000000
     12 C     c    0.003264 *  0.979080 *  0.031952 *   0.00000    1.000000
     13 C     c    0.990657 *  0.984069 *  0.037069 *   0.00000    1.000000
     14 C     c    0.986069 *  0.996522 *  0.033084 *   0.00000    1.000000
     15 C     c    0.993861 *  0.004606 *  0.023953 *   0.00000    1.000000
     16 C     c    0.972079 *  0.998333 *  0.029798 *   0.00000    1.000000
     17 C     c    0.963289 *  0.987673 *  0.030623 *   0.00000    1.000000
     18 C     c    0.954318 *  0.953860 *  0.000508 *   0.00000    1.000000
     19 C     c    0.949229 *  0.966938 *  0.005476 *   0.00000    1.000000
     20 C     c    0.951574 *  0.971620 *  0.018202 *   0.00000    1.000000
     21 C     c    0.953179 *  0.985791 *  0.020422 *   0.00000    1.000000
     22 C     c    0.952296 *  0.994799 *  0.009868 *   0.00000    1.000000
     23 C     c    0.950068 *  0.989851 *  0.996542 *   0.00000    1.000000
     24 C     c    0.948821 *  0.976178 *  0.994474 *   0.00000    1.000000
     25 C     c    0.000543 *  0.008277 *  0.996659 *   0.00000    1.000000
     26 C     c    0.987963 *  0.013352 *  0.001757 *   0.00000    1.000000
     27 C     c    0.977886 *  0.011444 *  0.991530 *   0.00000    1.000000
     28 C     c    0.957836 *  0.997900 *  0.987309 *   0.00000    1.000000
     29 C     c    0.964948 *  0.007879 *  0.995045 *   0.00000    1.000000
     30 C     c    0.961527 *  0.005945 *  0.008999 *   0.00000    1.000000
     31 C     c    0.971221 *  0.007665 *  0.018745 *   0.00000    1.000000
     32 C     c    0.984676 *  0.011530 *  0.015102 *   0.00000    1.000000
     33 C     c    0.977805 *  0.943094 *  0.004465 *   0.00000    1.000000
     34 C     c    0.980951 *  0.945064 *  0.991199 *   0.00000    1.000000
     35 C     c    0.994344 *  0.948972 *  0.987482 *   0.00000    1.000000
     36 C     c    0.004161 *  0.950755 *  0.997160 *   0.00000    1.000000
     37 C     c    0.000801 *  0.948962 *  0.011039 *   0.00000    1.000000
     38 C     c    0.987825 *  0.945460 *  0.014515 *   0.00000    1.000000
     39 C     c    0.016254 *  0.989798 *  0.000554 *   0.00000    1.000000
     40 C     c    0.017109 *  0.980573 *  0.011692 *   0.00000    1.000000
     41 C     c    0.007967 *  0.958910 *  0.018797 *   0.00000    1.000000
     42 C     c    0.015769 *  0.966926 *  0.009587 *   0.00000    1.000000
     43 C     c    0.013409 *  0.961876 *  0.996207 *   0.00000    1.000000
     44 C     c    0.012485 *  0.970737 *  0.985597 *   0.00000    1.000000
     45 C     c    0.014029 *  0.984955 *  0.987756 *   0.00000    1.000000
     46 C     c    0.002313 *  0.968826 *  0.975456 *   0.00000    1.000000
     47 C     c    0.993465 *  0.958217 *  0.976370 *   0.00000    1.000000
     48 C     c    0.959529 *  0.956788 *  0.986862 *   0.00000    1.000000
     49 C     c    0.971595 *  0.952062 *  0.982184 *   0.00000    1.000000
     50 C     c    0.979473 *  0.960121 *  0.973152 *   0.00000    1.000000
     51 C     c    0.974995 *  0.972626 *  0.969060 *   0.00000    1.000000
     52 C     c    0.962513 *  0.977674 *  0.974151 *   0.00000    1.000000
     53 C     c    0.955159 *  0.969959 *  0.983039 *   0.00000    1.000000
     54 C     c    0.998245 *  0.003228 *  0.983278 *   0.00000    1.000000
     55 C     c    0.984243 *  0.005138 *  0.980138 *   0.00000    1.000000
     56 C     c    0.963917 *  0.991941 *  0.976386 *   0.00000    1.000000
     57 C     c    0.977410 *  0.995659 *  0.972690 *   0.00000    1.000000
     58 C     c    0.984263 *  0.983731 *  0.968138 *   0.00000    1.000000
     59 C     c    0.997642 *  0.981874 *  0.971246 *   0.00000    1.000000
     60 C     c    0.004819 *  0.991842 *  0.978902 *   0.00000    1.000000

  Molecule list generated from bond lengths :

  Total number of molecules =     1

Molecule No./:  Atoms
Periodicity  :
     1  0    : C    c     1 C    c     2 C    c     3 C    c     4 C    c     5
             : C    c     6 C    c     7 C    c     8 C    c     9 C    c    10
             : C    c    11 C    c    12 C    c    13 C    c    14 C    c    15
             : C    c    16 C    c    17 C    c    18 C    c    19 C    c    20
             : C    c    21 C    c    22 C    c    23 C    c    24 C    c    25
             : C    c    26 C    c    27 C    c    28 C    c    29 C    c    30
             : C    c    31 C    c    32 C    c    33 C    c    34 C    c    35
             : C    c    36 C    c    37 C    c    38 C    c    39 C    c    40
             : C    c    41 C    c    42 C    c    43 C    c    44 C    c    45
             : C    c    46 C    c    47 C    c    48 C    c    49 C    c    50
             : C    c    51 C    c    52 C    c    53 C    c    54 C    c    55
             : C    c    56 C    c    57 C    c    58 C    c    59 C    c    60

  Bond calculation :

  Asymmetric unit site  Full lattice sites    No.  Distance      No.  Distance
                                                    (Angs)             (Angs)
      1    C     core        C     core        1    1.4892        1    1.4901
                                               1    1.5998
      2    C     core        C     core        1    1.3766        1    1.4381
                                               1    1.4901
      3    C     core        C     core        1    1.3766        1    1.4439
                                               1    1.4743
      4    C     core        C     core        1    1.3902        1    1.4439
                                               1    1.4484
      5    C     core        C     core        1    1.3902        1    1.4389
                                               1    1.4496
      6    C     core        C     core        1    1.3882        1    1.4389
                                               1    1.4508
      7    C     core        C     core        1    1.3882        1    1.4381
                                               1    1.4479
      8    C     core        C     core        1    1.3842        1    1.4484
                                               1    1.4491
      9    C     core        C     core        1    1.3856        1    1.4475
                                               1    1.4484
     10    C     core        C     core        1    1.3858        1    1.4475
                                               1    1.4488
     11    C     core        C     core        1    1.3848        1    1.4477
                                               1    1.4508
     12    C     core        C     core        1    1.3858        1    1.4477
                                               1    1.4491
     13    C     core        C     core        1    1.3857        1    1.4491
                                               1    1.4496
     14    C     core        C     core        1    1.3857        1    1.4473
                                               1    1.4484
     15    C     core        C     core        1    1.3856        1    1.4473
                                               1    1.4513
     16    C     core        C     core        1    1.3842        1    1.4484
                                               1    1.4490
     17    C     core        C     core        1    1.3842        2    1.4484
     18    C     core        C     core        1    1.4887        1    1.4897
                                               1    1.5998
     19    C     core        C     core        1    1.3761        1    1.4374
                                               1    1.4887
     20    C     core        C     core        1    1.3761        1    1.4433
                                               1    1.4743
     21    C     core        C     core        1    1.3905        1    1.4433
                                               1    1.4484
     22    C     core        C     core        1    1.3905        1    1.4388
                                               1    1.4498
     23    C     core        C     core        1    1.3884        1    1.4388
                                               1    1.4505
     24    C     core        C     core        1    1.3884        1    1.4374
                                               1    1.4477
     25    C     core        C     core        1    1.3842        1    1.4486
                                               1    1.4491
     26    C     core        C     core        1    1.3863        1    1.4484
                                               1    1.4491
     27    C     core        C     core        1    1.3873        1    1.4484
                                               1    1.4490
     28    C     core        C     core        1    1.3849        1    1.4492
                                               1    1.4505
     29    C     core        C     core        1    1.3873        1    1.4492
                                               1    1.4497
     30    C     core        C     core        1    1.3854        1    1.4497
                                               1    1.4498
     31    C     core        C     core        1    1.3854        1    1.4466
                                               1    1.4490
     32    C     core        C     core        1    1.3863        1    1.4466
                                               1    1.4513
[...]
     36 C     c       0.000604      0.000044      0.000695      0.000000
     37 C     c       0.000781     -0.000052      0.000038      0.000000
     38 C     c      -0.000506      0.000674      0.000590      0.000000
     39 C     c       0.000043      0.000217      0.000584      0.000000
     40 C     c      -0.000007      0.000638      0.000154      0.000000
     41 C     c      -0.000349     -0.000018     -0.000116      0.000000
     42 C     c      -0.000238     -0.000513     -0.000231      0.000000
     43 C     c       0.000095     -0.000427      0.000440      0.000000
     44 C     c      -0.000218      0.000256     -0.000670      0.000000
     45 C     c      -0.000331     -0.000119     -0.000356      0.000000
     46 C     c       0.000709      0.001044      0.000143      0.000000
     47 C     c      -0.001058     -0.001059      0.000259      0.000000
     48 C     c       0.002306     -0.002397     -0.001319      0.000000
     49 C     c      -0.001323      0.000995      0.001027      0.000000
     50 C     c       0.000741     -0.000323      0.000231      0.000000
     51 C     c      -0.000454      0.000714     -0.000230      0.000000
     52 C     c       0.000221      0.000301     -0.000586      0.000000
     53 C     c       0.000054      0.000313      0.000749      0.000000
     54 C     c      -0.000310      0.000381      0.000183      0.000000
     55 C     c       0.000127      0.000136      0.000318      0.000000
     56 C     c      -0.000005     -0.000260      0.000227      0.000000
     57 C     c       0.000040     -0.000303     -0.000009      0.000000
     58 C     c      -0.000566      0.000050     -0.000239      0.000000
     59 C     c       0.000554     -0.000296      0.000154      0.000000
     60 C     c       0.000149     -0.000529      0.000111      0.000000
  Maximum abs         0.002306      0.002397      0.005290      0.000000

  Bond calculation :

  Asymmetric unit site  Full lattice sites    No.  Distance      No.  Distance
                                                    (Angs)             (Angs)
      1    C     core        C     core        1    1.4602        2    1.5010
      2    C     core        C     core        1    1.4602        2    1.5010
      3    C     core        C     core        1    1.4602        2    1.5010
      4    C     core        C     core        1    1.4602        2    1.5010
      5    C     core        C     core        1    1.4602        2    1.5010
      6    C     core        C     core        1    1.4602        2    1.5010
      7    C     core        C     core        1    1.4602        2    1.5010
      8    C     core        C     core        1    1.4602        2    1.5010
      9    C     core        C     core        1    1.4602        2    1.5010
     10    C     core        C     core        1    1.4602        2    1.5010
     11    C     core        C     core        1    1.4602        2    1.5010
     12    C     core        C     core        1    1.4602        2    1.5010
     13    C     core        C     core        1    1.4602        2    1.5010
     14    C     core        C     core        1    1.4602        2    1.5010
     15    C     core        C     core        1    1.4602        2    1.5010
     16    C     core        C     core        1    1.4602        2    1.5010
     17    C     core        C     core        1    1.4602        2    1.5010
     18    C     core        C     core        1    1.4602        2    1.5010
     19    C     core        C     core        1    1.4602        2    1.5010
     20    C     core        C     core        1    1.4602        2    1.5010
     21    C     core        C     core        1    1.4602        2    1.5010
     22    C     core        C     core        1    1.4602        2    1.5010
     23    C     core        C     core        1    1.4602        2    1.5010
     24    C     core        C     core        1    1.4602        2    1.5010
     25    C     core        C     core        1    1.4602        2    1.5010
     26    C     core        C     core        1    1.4602        2    1.5010
     27    C     core        C     core        1    1.4602        2    1.5010
     28    C     core        C     core        1    1.4602        2    1.5010
     29    C     core        C     core        1    1.4602        2    1.5010
     30    C     core        C     core        1    1.4602        2    1.5010
     31    C     core        C     core        1    1.4602        2    1.5010
     32    C     core        C     core        1    1.4602        2    1.5010
     33    C     core        C     core        1    1.4602        2    1.5010
     34    C     core        C     core        1    1.4602        2    1.5010
     35    C     core        C     core        1    1.4602        2    1.5010
     36    C     core        C     core        1    1.4602        2    1.5010
     37    C     core        C     core        1    1.4602        2    1.5010
     38    C     core        C     core        1    1.4602        2    1.5010
     39    C     core        C     core        1    1.4602        2    1.5010
     40    C     core        C     core        1    1.4602        2    1.5010
     41    C     core        C     core        1    1.4602        2    1.5010
     42    C     core        C     core        1    1.4602        2    1.5010
     43    C     core        C     core        1    1.4602        2    1.5010
     44    C     core        C     core        1    1.4602        2    1.5010
     45    C     core        C     core        1    1.4602        2    1.5010
     46    C     core        C     core        1    1.4602        2    1.5010
     47    C     core        C     core        1    1.4602        2    1.5010
     48    C     core        C     core        1    1.4602        2    1.5010
     49    C     core        C     core        1    1.4602        2    1.5010
     50    C     core        C     core        1    1.4602        2    1.5010
     51    C     core        C     core        1    1.4602        2    1.5010
     52    C     core        C     core        1    1.4602        2    1.5010
     53    C     core        C     core        1    1.4602        2    1.5010
     54    C     core        C     core        1    1.4602        2    1.5010
     55    C     core        C     core        1    1.4602        2    1.5010
     56    C     core        C     core        1    1.4602        2    1.5010
     57    C     core        C     core        1    1.4602        2    1.5010
     58    C     core        C     core        1    1.4602        2    1.5010
     59    C     core        C     core        1    1.4602        2    1.5010
     60    C     core        C     core        1    1.4602        2    1.5010
  Total number of bonds =       90

  Elastic Constant Matrix: (Units=GPa)

  Indices      1         2         3         4         5         6
       1      0.0000   -0.0000   -0.0000    0.0000    0.0000    0.0000
       2     -0.0000    0.0000    0.0000    0.0000   -0.0000   -0.0000
       3     -0.0000   -0.0000    0.0000   -0.0000   -0.0000   -0.0000
       4      0.0000   -0.0000    0.0000    0.0000   -0.0000    0.0000
       5      0.0000    0.0000   -0.0000   -0.0000    0.0000    0.0000
       6      0.0000   -0.0000   -0.0000    0.0000    0.0000    0.0000

  Mechanical properties :

  Convention :                    Reuss         Voigt         Hill
  Bulk  Modulus (GPa)     = *************       0.00000 *************
  Shear Modulus (GPa)     = *************       0.00000 *************
  Velocity S-wave (km/s)  =  322066.67402       0.00189  227735.52919
  Velocity P-wave (km/s)  =  465802.35828       0.00240  329372.00623
  Compressibility (1/GPa) =    0.00000001
  Stress axis :                     x             y             z
  Youngs Moduli (GPa)     =       0.00000       0.00000 *************
  Poissons Ratio (x)      =                     0.00000       0.06578
  Poissons Ratio (y)      =       0.00000                    -0.01575
  Poissons Ratio (z)      =       0.00000      -0.00000

  Piezoelectric Strain Matrix: (Units=C/m**2)

  Indices      1         2         3         4         5         6
       x    -0.00000  -0.00000  -0.00000  -0.00000  -0.00000  -0.00000
       y    -0.00000  -0.00000  -0.00000  -0.00000  -0.00000  -0.00000
       z    -0.00000  -0.00000  -0.00000  -0.00000  -0.00000  -0.00000

  Piezoelectric Stress Matrix: (Units=10**-11 C/N)

  Indices      1         2         3         4         5         6
       x     0.00000   0.00000   0.00000   0.00000   0.00000   0.00000
       y     0.00000   0.00000   0.00000   0.00000   0.00000   0.00000
       z     0.00000   0.00000   0.00000   0.00000   0.00000   0.00000

  Static dielectric constant tensor :

              x         y         z
       x     1.00000   0.00000   0.00000
       y     0.00000   1.00000   0.00000
       z     0.00000   0.00000   1.00000

  Static refractive indices :

    1 =    1.00000      2 =    1.00000      3 =    1.00000

  Phonon Calculation :

  K direction for n-a correction at gamma =  1.00000  1.00000  1.00000

  Number of k points for this configuration =        1

  K point      1 =   0.000000  0.000000  0.000000  Weight =    1.000

  Frequencies (cm-1) [NB: Negative implies an imaginary mode]:

   -0.06   -0.06   -0.02   -0.00    0.00    0.00  280.75  280.88  280.90
  280.91  280.99  358.52  358.60  358.83  375.15  375.35  375.39  375.40
  432.48  432.60  432.63  432.64  432.84  441.16  449.29  449.37  449.42
  449.42  452.55  452.79  452.85  452.86  452.87  511.97  511.97  512.00
  512.01  512.17  525.82  525.88  525.90  618.58  618.70  618.80  634.81
  634.92  635.00  635.14  657.40  657.47  657.48  702.54  702.58  702.61
  718.22  718.35  718.49  718.56  718.77  740.09  740.11  740.12  740.13
  749.78  749.89  750.18  758.54  758.55  759.01  759.04  759.44  797.34
  797.36  797.52  797.56  797.92  851.64  851.69  851.87  852.65  871.99
  872.23  872.29  929.92  930.47  930.83  931.00  947.01  947.25  947.49
  947.60  947.97  988.75  988.78  988.94 1081.66 1082.14 1082.32 1101.41
 1101.83 1101.94 1101.99 1117.25 1117.76 1117.94 1117.96 1118.87 1137.07
 1137.12 1137.21 1168.25 1168.60 1168.97 1220.65 1220.73 1220.98 1221.46
 1302.58 1302.97 1303.03 1385.81 1386.02 1386.03 1386.08 1386.31 1390.24
 1390.73 1390.83 1391.12 1391.24 1549.83 1549.94 1550.21 1550.34 1578.27
 1578.79 1579.01 1579.02 1594.90 1597.42 1597.46 1597.68 1612.93 1613.14
 1613.15 1613.31 1613.42 1642.73 1642.92 1643.06 1755.80 1800.21 1800.51
 1800.65 1826.16 1826.46 1826.82 1828.61 1828.96 1828.98 1829.15 1829.42
 1896.73 1896.95 1897.03 1897.34 1912.09 1912.29 1912.35 1912.47 1916.38
 1916.49 1916.53 1916.59 1916.74 1924.24 1924.39 1924.40 1924.51 1924.58

  Phonon properties (per mole of unit cells): Temperature =      0.000 K
  Zero point energy            =       11.670397 eV

  Phonon density of states :

 Frequency (cm-1) Density of States
    0.00000 |******                                                        0.011
   30.07149 |                                                              0.000
   60.14297 |                                                              0.000
   90.21446 |                                                              0.000
  120.28595 |                                                              0.000
  150.35743 |                                                              0.000
  180.42892 |                                                              0.000
  210.50040 |                                                              0.000
  240.57189 |                                                              0.000
  270.64338 |****************                                              0.028
  300.71486 |                                                              0.000
  330.78635 |**********                                                    0.017
  360.85784 |*************                                                 0.023
  390.92932 |                                                              0.000
  421.00081 |*********************************                             0.057
  451.07229 |****************                                              0.028
  481.14378 |                                                              0.000
  511.21527 |**************************                                    0.045
  541.28675 |                                                              0.000
  571.35824 |                                                              0.000
  601.42973 |**********                                                    0.017
  631.50121 |***********************                                       0.040
  661.57270 |                                                              0.000
  691.64419 |**************************                                    0.045
  721.71567 |***********************                                       0.040
  751.78716 |****************                                              0.028
  781.85864 |****************                                              0.028
  811.93013 |                                                              0.000
  842.00162 |****************                                              0.028
  872.07310 |******                                                        0.011
  902.14459 |*************                                                 0.023
  932.21608 |****************                                              0.028
  962.28756 |**********                                                    0.017
  992.35905 |                                                              0.000
 1022.43053 |                                                              0.000
 1052.50202 |**********                                                    0.017
 1082.57351 |*************                                                 0.023
 1112.64499 |**************************                                    0.045
 1142.71648 |**********                                                    0.017
 1172.78797 |                                                              0.000
 1202.85945 |*************                                                 0.023
 1232.93094 |                                                              0.000
 1263.00243 |                                                              0.000
 1293.07391 |**********                                                    0.017
 1323.14540 |                                                              0.000
 1353.21688 |                                                              0.000
 1383.28837 |*********************************                             0.057
 1413.35986 |                                                              0.000
 1443.43134 |                                                              0.000
 1473.50283 |                                                              0.000
 1503.57432 |                                                              0.000
 1533.64580 |*************                                                 0.023
 1563.71729 |*************                                                 0.023
 1593.78877 |******************************                                0.051
 1623.86026 |**********                                                    0.017
 1653.93175 |                                                              0.000
 1684.00323 |                                                              0.000
 1714.07472 |                                                              0.000
 1744.14621 |***                                                           0.006
 1774.21769 |**********                                                    0.017
 1804.28918 |**************************                                    0.045
 1834.36067 |                                                              0.000
 1864.43215 |                                                              0.000
 1894.50364 |************************************************************  0.102

  Time to end of optimisation =       0.1400 seconds

  Timing analysis for GULP :

  Task / Subroutine                                          Time (Seconds)
  Calculation of Bond Order energy and derivatives                0.0440
  Calculation of molecules and connectivity                       0.0360
  Calculation of phonons                                          0.0240
  Calculation of scattering                                       0.0000
  Calculation of matrix inversion                                 0.0080

  LAMMPS file written on channel 26

  Job Finished at 14:52.55  1st July       2013