  Job Started  at 03:41.56 26th July       2013

  Number of CPUs =     1

  Total number of configurations input =   1

*  Input for Configuration =   1                                               *

  Formula = C1920

  Number of irreducible atoms/shells =    1920

  Total number atoms/shells =    1920

  Dimensionality = 3               :  Bulk

  Cartesian lattice vectors (Angstroms) :

       28.000000    0.000000    0.000000
        0.000000   28.000000    0.000000
        0.000000    0.000000   28.000000

  Cell parameters (Angstroms/Degrees):

  a =      28.0000    alpha =  90.0000
  b =      28.0000    beta  =  90.0000
  c =      28.0000    gamma =  90.0000

  Initial cell volume =       21952.000000 Angs**3

  Temperature of configuration =  300.0     K

  Pressure of configuration =         0.000 GPa

  Fractional coordinates of asymmetric unit :

   No.  Atomic       x           y          z         Charge      Occupancy
        Label      (Frac)      (Frac)     (Frac)        (e)         (Frac)
      1 C1    c    0.083571    0.092857   -0.021214     0.00000    1.000000
      2 C1    c    0.062500 *  0.108214 *  0.021214 *   0.00000    1.000000
      3 C1    c    0.056429 *  0.092857 * -0.065357 *   0.00000    1.000000
      4 C1    c    0.009000 *  0.108214 * -0.065357 *   0.00000    1.000000
      5 C1    c    0.105714 *  0.024929 * -0.065357 *   0.00000    1.000000
      6 C1    c    0.105714 * -0.024929 * -0.065357 *   0.00000    1.000000
      7 C1    c    0.114286 *  0.051071 * -0.021214 *   0.00000    1.000000
      8 C1    c    0.122500 *  0.025964 *  0.021214 *   0.00000    1.000000
      9 C1    c    0.070000 *  0.051071 * -0.092857 *   0.00000    1.000000
     10 C1    c    0.035714 *  0.025964 * -0.118929 *   0.00000    1.000000
     11 C1    c    0.013107 *  0.124286 *  0.021214 *   0.00000    1.000000
     12 C1    c   -0.013107 *  0.124286 * -0.021214 *   0.00000    1.000000
     13 C1    c   -0.009000 *  0.108214 *  0.065357 *   0.00000    1.000000
     14 C1    c   -0.056429 *  0.092857 *  0.065357 *   0.00000    1.000000
     15 C1    c    0.071071 *  0.082500 *  0.065357 *   0.00000    1.000000
     16 C1    c    0.100357 *  0.042143 *  0.065357 *   0.00000    1.000000
     17 C1    c    0.026786 *  0.082500 *  0.092857 *   0.00000    1.000000
     18 C1    c    0.013643 *  0.042143 *  0.118929 *   0.00000    1.000000
     19 C1    c   -0.062500 *  0.108214 * -0.021214 *   0.00000    1.000000
     20 C1    c   -0.083571 *  0.092857 *  0.021214 *   0.00000    1.000000
     21 C1    c   -0.071071 *  0.082500 * -0.065357 *   0.00000    1.000000
     22 C1    c   -0.100357 *  0.042143 * -0.065357 *   0.00000    1.000000
     23 C1    c   -0.026786 *  0.082500 * -0.092857 *   0.00000    1.000000
     24 C1    c   -0.013643 *  0.042143 * -0.118929 *   0.00000    1.000000
     25 C1    c   -0.114286 *  0.051071 *  0.021214 *   0.00000    1.000000
     26 C1    c   -0.122500 *  0.025964 * -0.021214 *   0.00000    1.000000
     27 C1    c   -0.105714 *  0.024929 *  0.065357 *   0.00000    1.000000
     28 C1    c   -0.105714 * -0.024929 *  0.065357 *   0.00000    1.000000
     29 C1    c   -0.070000 *  0.051071 *  0.092857 *   0.00000    1.000000
     30 C1    c   -0.035714 *  0.025964 *  0.118929 *   0.00000    1.000000
     31 C1    c   -0.122500 * -0.025964 * -0.021214 *   0.00000    1.000000
     32 C1    c   -0.114286 * -0.051071 *  0.021214 *   0.00000    1.000000
     33 C1    c   -0.100357 * -0.042143 * -0.065357 *   0.00000    1.000000
     34 C1    c   -0.071071 * -0.082500 * -0.065357 *   0.00000    1.000000
     35 C1    c   -0.086786 *  0.000000 * -0.092857 *   0.00000    1.000000
     36 C1    c   -0.044286 *  0.000000 * -0.118929 *   0.00000    1.000000
     37 C1    c   -0.083571 * -0.092857 *  0.021214 *   0.00000    1.000000
     38 C1    c   -0.062500 * -0.108214 * -0.021214 *   0.00000    1.000000
     39 C1    c   -0.056429 * -0.092857 *  0.065357 *   0.00000    1.000000
     40 C1    c   -0.009000 * -0.108214 *  0.065357 *   0.00000    1.000000
     41 C1    c   -0.070000 * -0.051071 *  0.092857 *   0.00000    1.000000
     42 C1    c   -0.035714 * -0.025964 *  0.118929 *   0.00000    1.000000
     43 C1    c   -0.013107 * -0.124286 * -0.021214 *   0.00000    1.000000
     44 C1    c    0.013107 * -0.124286 *  0.021214 *   0.00000    1.000000
     45 C1    c    0.009000 * -0.108214 * -0.065357 *   0.00000    1.000000
     46 C1    c    0.056429 * -0.092857 * -0.065357 *   0.00000    1.000000
     47 C1    c   -0.026786 * -0.082500 * -0.092857 *   0.00000    1.000000
     48 C1    c   -0.013643 * -0.042143 * -0.118929 *   0.00000    1.000000
     49 C1    c    0.062500 * -0.108214 *  0.021214 *   0.00000    1.000000
     50 C1    c    0.083571 * -0.092857 * -0.021214 *   0.00000    1.000000
     51 C1    c    0.071071 * -0.082500 *  0.065357 *   0.00000    1.000000
     52 C1    c    0.100357 * -0.042143 *  0.065357 *   0.00000    1.000000
     53 C1    c    0.026786 * -0.082500 *  0.092857 *   0.00000    1.000000
     54 C1    c    0.013643 * -0.042143 *  0.118929 *   0.00000    1.000000
     55 C1    c    0.114286 * -0.051071 * -0.021214 *   0.00000    1.000000
     56 C1    c    0.122500 * -0.025964 *  0.021214 *   0.00000    1.000000
     57 C1    c    0.070000 * -0.051071 * -0.092857 *   0.00000    1.000000
     58 C1    c    0.035714 * -0.025964 * -0.118929 *   0.00000    1.000000
     59 C1    c    0.086786 *  0.000000 *  0.092857 *   0.00000    1.000000
     60 C1    c    0.044286 *  0.000000 *  0.118929 *   0.00000    1.000000
     61 C1    c    0.333571 *  0.342857 * -0.021214 *   0.00000    1.000000
[...]
   1906 C1    c    0.556429 *  0.657143 *  0.684643 *   0.00000    1.000000
   1907 C1    c    0.473214 *  0.667500 *  0.657143 *   0.00000    1.000000
   1908 C1    c    0.486357 *  0.707857 *  0.631071 *   0.00000    1.000000
   1909 C1    c    0.562500 *  0.641786 *  0.771214 *   0.00000    1.000000
   1910 C1    c    0.583571 *  0.657143 *  0.728786 *   0.00000    1.000000
   1911 C1    c    0.571071 *  0.667500 *  0.815357 *   0.00000    1.000000
   1912 C1    c    0.600357 *  0.707857 *  0.815357 *   0.00000    1.000000
   1913 C1    c    0.526786 *  0.667500 *  0.842857 *   0.00000    1.000000
   1914 C1    c    0.513643 *  0.707857 *  0.868929 *   0.00000    1.000000
   1915 C1    c    0.614286 *  0.698929 *  0.728786 *   0.00000    1.000000
   1916 C1    c    0.622500 *  0.724036 *  0.771214 *   0.00000    1.000000
   1917 C1    c    0.570000 *  0.698929 *  0.657143 *   0.00000    1.000000
   1918 C1    c    0.535714 *  0.724036 *  0.631071 *   0.00000    1.000000
   1919 C1    c    0.586786 *  0.750000 *  0.842857 *   0.00000    1.000000
   1920 C1    c    0.544286 *  0.750000 *  0.868929 *   0.00000    1.000000

  Molecule list generated from bond lengths :

  Total number of molecules =    32

Molecule No./:  Atoms
Periodicity  :
     1  0    : C1   c     1 C1   c     2 C1   c     3 C1   c     4 C1   c     5
             : C1   c     6 C1   c     7 C1   c     8 C1   c     9 C1   c    10
             : C1   c    11 C1   c    12 C1   c    13 C1   c    14 C1   c    15
             : C1   c    16 C1   c    17 C1   c    18 C1   c    19 C1   c    20
             : C1   c    21 C1   c    22 C1   c    23 C1   c    24 C1   c    25
             : C1   c    26 C1   c    27 C1   c    28 C1   c    29 C1   c    30
             : C1   c    31 C1   c    32 C1   c    33 C1   c    34 C1   c    35
             : C1   c    36 C1   c    37 C1   c    38 C1   c    39 C1   c    40
             : C1   c    41 C1   c    42 C1   c    43 C1   c    44 C1   c    45
             : C1   c    46 C1   c    47 C1   c    48 C1   c    49 C1   c    50
             : C1   c    51 C1   c    52 C1   c    53 C1   c    54 C1   c    55
             : C1   c    56 C1   c    57 C1   c    58 C1   c    59 C1   c    60
     2  0    : C1   c    61 C1   c    62 C1   c    63 C1   c    64 C1   c    65
             : C1   c    66 C1   c    67 C1   c    68 C1   c    69 C1   c    70
             : C1   c    71 C1   c    72 C1   c    73 C1   c    74 C1   c    75
             : C1   c    76 C1   c    77 C1   c    78 C1   c    79 C1   c    80
             : C1   c    81 C1   c    82 C1   c    83 C1   c    84 C1   c    85
             : C1   c    86 C1   c    87 C1   c    88 C1   c    89 C1   c    90
             : C1   c    91 C1   c    92 C1   c    93 C1   c    94 C1   c    95
             : C1   c    96 C1   c    97 C1   c    98 C1   c    99 C1   c   100
             : C1   c   101 C1   c   102 C1   c   103 C1   c   104 C1   c   105
             : C1   c   106 C1   c   107 C1   c   108 C1   c   109 C1   c   110
             : C1   c   111 C1   c   112 C1   c   113 C1   c   114 C1   c   115
             : C1   c   116 C1   c   117 C1   c   118 C1   c   119 C1   c   120
     3  0    : C1   c   121 C1   c   122 C1   c   123 C1   c   124 C1   c   125
             : C1   c   126 C1   c   127 C1   c   128 C1   c   129 C1   c   130
             : C1   c   131 C1   c   132 C1   c   133 C1   c   134 C1   c   135
             : C1   c   136 C1   c   137 C1   c   138 C1   c   139 C1   c   140
             : C1   c   141 C1   c   142 C1   c   143 C1   c   144 C1   c   145
             : C1   c   146 C1   c   147 C1   c   148 C1   c   149 C1   c   150
             : C1   c   151 C1   c   152 C1   c   153 C1   c   154 C1   c   155
             : C1   c   156 C1   c   157 C1   c   158 C1   c   159 C1   c   160
             : C1   c   161 C1   c   162 C1   c   163 C1   c   164 C1   c   165
             : C1   c   166 C1   c   167 C1   c   168 C1   c   169 C1   c   170
             : C1   c   171 C1   c   172 C1   c   173 C1   c   174 C1   c   175
             : C1   c   176 C1   c   177 C1   c   178 C1   c   179 C1   c   180
     4  0    : C1   c   181 C1   c   182 C1   c   183 C1   c   184 C1   c   185
             : C1   c   186 C1   c   187 C1   c   188 C1   c   189 C1   c   190
             : C1   c   191 C1   c   192 C1   c   193 C1   c   194 C1   c   195
             : C1   c   196 C1   c   197 C1   c   198 C1   c   199 C1   c   200
             : C1   c   201 C1   c   202 C1   c   203 C1   c   204 C1   c   205
             : C1   c   206 C1   c   207 C1   c   208 C1   c   209 C1   c   210
             : C1   c   211 C1   c   212 C1   c   213 C1   c   214 C1   c   215
             : C1   c   216 C1   c   217 C1   c   218 C1   c   219 C1   c   220
             : C1   c   221 C1   c   222 C1   c   223 C1   c   224 C1   c   225
             : C1   c   226 C1   c   227 C1   c   228 C1   c   229 C1   c   230
             : C1   c   231 C1   c   232 C1   c   233 C1   c   234 C1   c   235
             : C1   c   236 C1   c   237 C1   c   238 C1   c   239 C1   c   240
     5  0    : C1   c   241 C1   c   242 C1   c   243 C1   c   244 C1   c   245
             : C1   c   246 C1   c   247 C1   c   248 C1   c   249 C1   c   250
             : C1   c   251 C1   c   252 C1   c   253 C1   c   254 C1   c   255
             : C1   c   256 C1   c   257 C1   c   258 C1   c   259 C1   c   260
             : C1   c   261 C1   c   262 C1   c   263 C1   c   264 C1   c   265
[...]

  Static refractive indices :

    1 =    1.00000      2 =    1.00000      3 =    1.00000

  Phonon Calculation :

  Number of k points for this configuration =        1

  K point      1 =   0.000000  0.000000  0.000000  Weight =    1.000

 Frequencies (cm-1) :

  -39.07  -26.37  -24.72  -15.86  -11.90   -3.14   -0.00   -0.00    0.00
   10.48   12.57   19.46   22.46   24.03   26.53   27.23   28.41   28.79
   29.30   30.53   31.34   31.64   32.12   34.56   35.38   36.43   37.10
   37.53   37.93   38.52   39.02   39.22   39.35   40.21   40.62   41.30
   41.94   42.91   43.23   43.50   44.20   44.39   44.50   44.87   45.19
   45.40   45.62   46.16   46.43   47.07   47.34   47.51   48.26   48.73
   49.17   49.28   49.86   50.05   50.17   50.31   50.39   50.99   51.31
   51.94   53.26   54.03   54.20   54.55   54.64   54.76   56.22   58.19
   58.60   59.30   59.87   59.96   60.22   60.26   60.59   62.42   62.48
   63.38   63.50   63.54   65.06   65.21   65.60   65.92   66.05   66.50
   66.77   67.09   67.22   67.27   68.04   68.37   69.65   70.33   70.44
   70.59   70.71   70.81   72.32   72.40   72.78   73.35   73.60   74.26
   74.50   74.55   74.75   75.00   75.69   76.29   76.48   76.99   77.50
   77.89   77.96   78.17   78.41   78.58   78.71   78.93   82.76   82.77
   84.36   85.52   86.71   86.74   87.05   91.49   92.81   93.33   93.95
   94.95   95.17   95.64   96.05   98.66   98.99   99.32   99.52   99.88
  100.59  101.72  108.89  115.56  115.61  115.72  115.95  116.14  116.77
  116.83  118.57  122.79  123.21  123.45  124.09  124.28  124.93  129.37
  129.64  130.01  130.20  131.87  131.98  137.31  137.94  140.14  141.45
  144.27  145.16  155.24  156.18  156.33  157.64  158.84  159.09  159.22
  159.94  161.51  162.02  163.29  163.54  170.54  172.13  194.35  194.83
  195.12  195.92  215.12  222.94  226.85  227.06  231.60  231.99  232.82
  233.26  233.83  233.85  233.99  234.42  234.67  237.77  238.31  238.35
  238.48  238.99  239.26  239.38  239.41  239.60  240.63  241.04  241.56
  241.87  243.40  243.77  243.99  244.22  244.66  244.72  245.70  246.46
  246.75  247.37  247.63  247.86  248.19  248.48  249.22  249.35  249.78
  249.81  250.14  250.18  256.12  256.55  257.05  257.33  258.45  258.99
  259.10  259.21  259.26  259.37  259.97  260.13  260.41  260.48  260.67
  261.15  262.20  262.46  262.55  262.75  263.03  263.17  263.94  264.18
  264.72  265.12  266.88  266.91  266.97  267.42  268.11  269.82  269.88
  270.59  270.82  271.47  271.99  273.04  273.45  278.32  278.39  279.31
  279.56  279.71  282.36  282.69  285.02  285.17  285.53  285.79  286.28
  286.60  287.66  288.32  288.35  288.68  288.85  289.20  289.45  290.07
  290.37  291.08  291.25  291.40  291.78  291.98  292.07  292.35  292.59
  292.61  294.85  295.41  295.57  295.69  296.07  296.42  297.17  297.31
  297.83  298.58  299.24  300.52  300.64  301.01  301.15  301.90  302.05
  303.67  303.78  304.18  304.55  304.78  306.31  307.49  308.31  308.60
  309.05  309.91  310.33  310.75  311.09  311.54  311.64  311.74  311.96
  312.47  312.67  312.91  313.06  313.62  313.74  314.14  314.59  314.85
  315.20  315.32  315.50  315.79  317.39  318.18  318.32  318.43  318.50
  318.70  318.97  320.31  320.71  320.97  321.55  322.81  323.06  323.20
  323.36  323.67  324.12  325.15  325.86  325.95  326.18  326.90  327.12
  327.41  327.91  328.26  328.40  328.82  330.20  330.60  331.06  331.24
  331.76  331.91  332.15  332.66  333.00  333.77  334.51  334.88  335.05
  335.20  335.40  336.14  336.71  336.99  337.91  338.26  338.42  338.58
  339.19  339.47  340.06  342.54  343.42  344.36  344.50  344.78  344.99
  345.16  345.39  345.85  346.01  346.61  346.70  347.16  347.37  347.62
  347.99  348.18  348.30  348.63  348.80  349.24  349.53  349.90  350.07
  350.23  350.41  350.89  351.07  351.39  351.82  351.96  352.08  352.30
  352.82  352.89  353.59  353.66  354.10  354.16  354.34  354.67  354.75
  355.40  355.65  355.86  356.21  356.43  356.79  356.88  357.27  357.40
  357.78  357.90  358.24  358.56  358.81  358.95  359.04  359.26  359.43
  359.64  359.77  359.98  360.33  360.57  360.71  360.86  360.97  361.30
  361.47  361.51  361.61  362.21  362.55  362.82  362.99  363.03  363.16
  363.41  363.68  363.77  363.92  364.12  364.29  364.75  364.96  364.97
  364.99  365.78  365.94  365.98  366.04  366.22  366.28  366.61  366.71
  366.82  366.99  367.04  367.20  367.40  367.56  367.68  367.74  368.09
  368.15  368.18  368.31  368.54  368.63  368.88  369.03  369.12  369.60
  369.96  369.99  370.06  370.30  370.90  370.98  371.26  371.38  371.54
  372.03  372.17  372.34  372.65  372.74  372.81  373.17  373.33  373.54
[...]
 1688.97 1689.48 1689.88 1693.47 1693.80 1694.31 1694.87 1699.86 1700.22
 1700.28 1700.48 1700.71 1701.33 1701.43 1701.59 1702.07 1702.19 1702.38
 1702.63 1703.12 1703.27 1703.56 1703.64 1703.87 1704.05 1704.20 1704.31
 1704.50 1704.93 1704.98 1705.08 1705.19 1705.30 1705.50 1705.69 1705.83
 1705.96 1706.10 1706.39 1707.78 1707.99 1708.21 1708.37 1708.48 1708.77
 1708.87 1709.03 1709.99 1710.26 1710.53 1710.76 1710.94 1711.04 1711.14
 1711.45 1711.59 1711.61 1711.71 1711.77 1712.10 1712.16 1712.27 1712.42
 1712.82 1712.87 1713.14 1713.24 1714.41 1714.48 1714.59 1714.74 1714.82
 1715.11 1715.34 1715.53 1715.60 1715.79 1715.82 1716.03 1716.29 1716.37
 1716.39 1716.62 1716.67 1716.88 1716.99 1717.16 1717.57 1717.67 1718.12
 1718.41 1718.53 1718.62 1718.82 1719.26 1720.40 1720.61 1720.67 1721.09
 1723.56 1723.90 1724.46 1724.90 1743.13 1743.24 1743.36 1743.44 1743.46
 1743.52 1743.62 1743.65 1743.70 1743.87 1743.91 1744.01 1744.07 1744.47
 1744.53 1744.59 1744.63 1744.73 1744.93 1744.94 1745.27 1745.69 1745.75
 1745.98 1746.13 1746.33 1746.42 1746.56 1746.71 1746.85 1747.13 1748.47

  Thermal conductivity:

  Lorentzian broadening factor =     0.0152 cm-1

 Mode    : Frequency (cm-1)         Thermal conductivity (cm**2/s)
    10       10.4816                  0.00000000000000
    11       12.5704                  0.00000000000000
    12       19.4559                  0.00000000000000
    13       22.4635                  0.00000000000000
    14       24.0299                  0.00000000000000
    15       26.5316                  0.00000000000000
    16       27.2305                  0.00000000000000
    17       28.4058                  0.00135212921773
    18       28.7897                  0.00156514333761
    19       29.2963                  0.00024030299924
    20       30.5269                  0.00000000000000
    21       31.3437                  0.00000585379692
    22       31.6368                  0.00044526042894
    23       32.1247                  0.00042626506890
    24       34.5596                  0.00000000000000
    25       35.3762                  0.00000000000000
    26       36.4283                  0.00003992231967
    27       37.1023                  0.00015087632319
    28       37.5270                  0.00023347687851
    29       37.9328                  0.00027603415153
    30       38.5174                  0.00016553907685
    31       39.0198                  0.00030328351653
    32       39.2167                  0.00027713215346
    33       39.3549                  0.00011824487234
    34       40.2101                  0.00020665109894
    35       40.6152                  0.00020818682289
    36       41.2980                  0.00030423559722
    37       41.9411                  0.00028969069617
    38       42.9054                  0.00003507956818
    39       43.2344                  0.00008087811190
    40       43.5046                  0.00005952481416
    41       44.1953                  0.00026223477039
    42       44.3938                  0.00097697333277
    43       44.4990                  0.00112841527095
    44       44.8690                  0.00052312592616
    45       45.1924                  0.00006904754601
    46       45.4047                  0.00010271763283
    47       45.6158                  0.00006279492395
    48       46.1650                  0.00008897418551
    49       46.4349                  0.00014468462646
    50       47.0732                  0.00054287528089
    51       47.3409                  0.00046984745467
    52       47.5125                  0.00010011511770
    53       48.2576                  0.00010019333587
    54       48.7259                  0.00010888552394
    55       49.1674                  0.00004208419223
    56       49.2842                  0.00003415838971
    57       49.8582                  0.00017168925300
    58       50.0530                  0.00075128691143
    59       50.1683                  0.00150444092593
    60       50.3129                  0.00195190789948
    61       50.3880                  0.00275790846967
    62       50.9853                  0.00014636528482
    63       51.3133                  0.00004863409233
    64       51.9395                  0.00001124643669
    65       53.2620                  0.00000000000000
    66       54.0251                  0.00204906192942
    67       54.1985                  0.00020012459478
    68       54.5480                  0.01342879585701
    69       54.6368                  0.01260486976496
[...]
  5746     1744.7347                  0.00027178461903
  5747     1744.9312                  0.00014134604961
  5748     1744.9352                  0.00014833998445
  5749     1745.2747                  0.00003279724505
  5750     1745.6945                  0.00126511492598
  5751     1745.7451                  0.00126802061461
  5752     1745.9828                  0.00007558792598
  5753     1746.1305                  0.00004662779445
  5754     1746.3302                  0.00036352244506
  5755     1746.4191                  0.00035392540519
  5756     1746.5602                  0.00039391859805
  5757     1746.7101                  0.00034852928909
  5758     1746.8498                  0.00007606276999
  5759     1747.1295                  0.00004996017175
  5760     1748.4689                  0.00000000000000
  Thermal conductivity =     1.204457 W/(m.K)

  Phonon properties (per mole of unit cells): Temperature =    300.000 K
  Zero point energy            =      350.282058 eV
  Entropy                      =        0.098562 eV/K
                               =     9509.714035 J/(mol.K)
  Helmholtz free-energy        =   -15082.783399 eV
                               = -1455257.909234 kJmol-1
  Free energy (equipartition)  =   -15214.216652 eV
  - T*S       (equipartition)  =       58.431010 eV
  Uvib        (equipartition)  =      148.674900 eV
  Mean kinetic energy          =      184.170278 eV
  Heat capacity - const volume =        0.151246 eV/K
                               =    14592.928917 J/(mol.K)

  Phonon density of states :

  Broadening factor =     0.0500

 Frequency (cm-1) Density of States
    0.00000 |****                                                          0.002
   28.52672 |**********                                                    0.005
   57.05344 |***************                                               0.008
   85.58016 |************                                                  0.007
  114.10688 |*********                                                     0.005
  142.63360 |*******                                                       0.004
  171.16032 |******                                                        0.003
  199.68704 |******                                                        0.003
  228.21376 |**********                                                    0.006
  256.74048 |****************                                              0.008
  285.26720 |******************                                            0.009
  313.79392 |**********************                                        0.011
  342.32064 |****************************                                  0.014
  370.84736 |************************************                          0.019
  399.37409 |*********************************                             0.017
  427.90081 |*****************************                                 0.015
  456.42753 |***************************                                   0.014
  484.95425 |***************************                                   0.014
  513.48097 |******************************                                0.016
  542.00769 |***********************************                           0.018
  570.53441 |***********************************                           0.018
  599.06113 |********************************                              0.017
  627.58785 |*******************************************                   0.022
  656.11457 |**************************************************            0.026
  684.64129 |**************************************************            0.026
  713.16801 |********************************************                  0.023
  741.69473 |*****************************************                     0.021
  770.22145 |************************************************              0.025
  798.74817 |*************************************************             0.025
  827.27489 |***************************************                       0.020
  855.80161 |*********************************                             0.017
  884.32833 |*****************************                                 0.015
  912.85505 |****************************                                  0.015
  941.38177 |****************************************                      0.021
  969.90849 |***********************************************               0.024
  998.43521 |*********************************                             0.017
 1026.96193 |**************************                                    0.014
 1055.48865 |***********************************                           0.018
 1084.01537 |****************************************                      0.021
 1112.54209 |***********************************                           0.018
 1141.06881 |**********************************                            0.018
 1169.59553 |*************************************                         0.019
 1198.12226 |*************************************                         0.019
 1226.64898 |**************************                                    0.014
 1255.17570 |********************                                          0.011
 1283.70242 |*********************                                         0.011
 1312.22914 |************************                                      0.013
 1340.75586 |*****************************                                 0.015
 1369.28258 |*******************************                               0.016
 1397.80930 |**********************************                            0.018
 1426.33602 |*********************************                             0.017
 1454.86274 |***************************************                       0.020
 1483.38946 |**********************************************                0.024
 1511.91618 |********************************************************      0.029
 1540.44290 |********************************************************      0.029
 1568.96962 |************************************************************  0.031
 1597.49634 |*********************************************                 0.023
 1626.02306 |******************************                                0.016
 1654.54978 |********************************                              0.017
 1683.07650 |***************************                                   0.014
 1711.60322 |************************                                      0.013
 1740.12994 |**************                                                0.008
 1768.65666 |******                                                        0.004
 1797.18338 |***                                                           0.002

  Time to end of optimisation =   12188.9338 seconds

  Timing analysis for GULP :

  Task / Subroutine                                          Time (Seconds)
  Calculation of real space energy and derivatives              466.1491
  Calculation of Bond Order energy and derivatives              251.3037
  Calculation of molecules and connectivity                      11.3567
  Calculation of phonons                                       6403.8602
  Calculation of scattering                                       0.0000
  Calculation of matrix inversion                              4742.3284
  Disk read/write operations to scratch files                     0.0040

  LAMMPS file written on channel 26

  Job Finished at 07:05.39 26th July       2013